 vasp.5.4.4.18Apr17-6-g9f103f2a35 (build May 22 2020 17:00:04) complex

 executed on           IFC15_impi date 2020.09.28  23:27:31

 INCAR:
 POTCAR:    PAW_PBE C 08Apr2002
 POTCAR:    PAW_PBE Co 02Aug2007
 POTCAR:    PAW_PBE H 15Jun2001
 POTCAR:    PAW_PBE N 08Apr2002
 POTCAR:    PAW_PBE O 08Apr2002

 POTCAR:    PAW_PBE C 08Apr2002
   VRHFIN =C: s2p2

   TITEL  = PAW_PBE C 08Apr2002
   POMASS =   12.011; ZVAL   =    4.000    mass and valenz
   ENMAX  =  400.000; ENMIN  =  300.000 eV

 POTCAR:    PAW_PBE Co 02Aug2007
   VRHFIN =Co: d8 s1

   TITEL  = PAW_PBE Co 02Aug2007
   POMASS =   58.933; ZVAL   =    9.000    mass and valenz
   ENMAX  =  267.968; ENMIN  =  200.976 eV

 POTCAR:    PAW_PBE H 15Jun2001
   VRHFIN =H: ultrasoft test

   TITEL  = PAW_PBE H 15Jun2001
   POMASS =    1.000; ZVAL   =    1.000    mass and valenz
   ENMAX  =  250.000; ENMIN  =  200.000 eV

 POTCAR:    PAW_PBE N 08Apr2002
   VRHFIN =N: s2p3

[...]

 POTCAR:    PAW_PBE O 08Apr2002
   VRHFIN =O: s2p4

   TITEL  = PAW_PBE O 08Apr2002
   POMASS =   16.000; ZVAL   =    6.000    mass and valenz
   ENMAX  =  400.000; ENMIN  =  300.000 eV

 Optimization of the real space projectors (new method)

 maximal supplied QI-value         = 25.13
 optimisation between [QCUT,QGAM] = [ 12.32, 24.88] = [ 42.47,173.37] Ry
 Optimized for a Real-space Cutoff    1.06 Angstroem

   l    n(q)    QCUT    max X(q) W(low)/X(q) W(high)/X(q)  e(spline)
   0      8    12.315   115.676    0.34E-03    0.18E-03    0.23E-06
   0      8    12.315    87.132    0.34E-03    0.18E-03    0.22E-06
   1      7    12.315     4.429    0.45E-03    0.12E-03    0.18E-06
   1      7    12.315     2.733    0.35E-03    0.97E-04    0.15E-06
 Optimization of the real space projectors (new method)

[...]

   l    n(q)    QCUT    max X(q) W(low)/X(q) W(high)/X(q)  e(spline)
   0      9    12.315    79.467    0.14E-03    0.22E-04    0.37E-06
   0      9    12.315    66.151    0.14E-03    0.23E-04    0.36E-06
   1      8    12.315    22.077    0.30E-03    0.54E-03    0.45E-06
   1      8    12.315    15.894    0.30E-03    0.55E-03    0.45E-06
 Optimization of the real space projectors (new method)

 maximal supplied QI-value         = 24.76
 optimisation between [QCUT,QGAM] = [ 12.38, 25.00] = [ 42.90,175.06] Ry
 Optimized for a Real-space Cutoff    1.13 Angstroem

   l    n(q)    QCUT    max X(q) W(low)/X(q) W(high)/X(q)  e(spline)
   0      8    12.378    20.381    0.16E-03    0.54E-05    0.27E-06
   0      8    12.378    15.268    0.17E-03    0.61E-05    0.29E-06
   1      8    12.378     5.964    0.38E-03    0.23E-03    0.28E-06
   1      8    12.378     5.382    0.33E-03    0.20E-03    0.25E-06
  PAW_PBE C 08Apr2002                   :
  PAW_PBE Co 02Aug2007                  :
  PAW_PBE H 15Jun2001                   :
  PAW_PBE N 08Apr2002                   :
  PAW_PBE O 08Apr2002                   :

 POSCAR: CoH_middle
  positions in direct lattice
  velocities in cartesian coordinates
 exchange correlation table for  LEXCH =        8
   RHO(1)=    0.500       N(1)  =     2000
   RHO(2)=  100.500       N(2)  =     4000

 ion  position               nearest neighbor table
   1  0.893  0.957  0.150- 107 1.08 117 1.34  65 1.40
   2  0.766  0.951  0.434- 112 1.09 118 1.36  65 1.40
   3  0.894  0.799  0.897- 116 1.08 119 1.34  66 1.40
   4  0.607  0.457  0.648- 110 1.08 120 1.34  67 1.40
   5  0.733  0.304  0.111- 111 1.09 121 1.36  68 1.40
   6  0.229  0.804  0.112- 115 1.09 122 1.36  69 1.40
   7  0.734  0.451  0.933- 101 1.09 123 1.36  67 1.40
   8  0.606  0.298  0.395- 113 1.08 124 1.34  68 1.40
   9  0.271  0.452  0.433- 114 1.09 125 1.36  70 1.40
  10  0.102  0.799  0.397- 104 1.08 126 1.34  69 1.40
  11  0.229  0.952  0.934- 105 1.09 127 1.36  71 1.40
  12  0.270  0.304  0.611- 102 1.09 128 1.36  72 1.40
  13  0.767  0.804  0.612- 108 1.09 129 1.36  66 1.40
  14  0.102  0.957  0.650- 109 1.08 130 1.34  71 1.40
  15  0.398  0.299  0.895- 106 1.08 131 1.34  72 1.40
  16  0.398  0.457  0.148- 103 1.08 132 1.34  70 1.40
  17  0.688  0.032  0.138- 141 1.23 133 1.42  33 1.48
  18  0.828  0.050  0.471- 142 1.23 133 1.41  34 1.48
  19  0.829  0.706  0.575- 143 1.23 134 1.41  35 1.48
  20  0.672  0.550  0.969- 144 1.23 135 1.41  36 1.48
  21  0.671  0.206  0.075- 145 1.23 136 1.41  37 1.48
  22  0.309  0.724  0.409- 146 1.23 137 1.42  38 1.48
  23  0.812  0.532  0.636- 147 1.23 135 1.42  39 1.48
  24  0.811  0.223  0.408- 148 1.23 136 1.42  40 1.48
  25  0.193  0.532  0.135- 149 1.23 138 1.42  41 1.48
  26  0.169  0.706  0.076- 150 1.23 137 1.41  42 1.48
  27  0.168  0.050  0.970- 151 1.23 139 1.41  43 1.48
  28  0.331  0.206  0.575- 152 1.23 140 1.41  44 1.48
  29  0.689  0.723  0.909- 153 1.23 134 1.42  45 1.48
  30  0.307  0.032  0.636- 154 1.23 139 1.42  46 1.48
  31  0.191  0.224  0.909- 155 1.23 140 1.42  47 1.48
  32  0.332  0.550  0.469- 156 1.23 138 1.41  48 1.48
  33  0.687  0.077  0.124-  49 1.39  73 1.41  17 1.48
  34  0.817  0.094  0.455-  50 1.39  73 1.41  18 1.48
  35  0.818  0.661  0.591-  51 1.39  74 1.41  19 1.48
  36  0.683  0.594  0.954-  52 1.39  75 1.41  20 1.48
  37  0.681  0.161  0.091-  53 1.39  76 1.41  21 1.48
  38  0.311  0.679  0.423-  54 1.39  77 1.41  22 1.48
  39  0.813  0.577  0.622-  55 1.39  75 1.41  23 1.48
  40  0.812  0.179  0.422-  56 1.39  76 1.41  24 1.48
  41  0.190  0.577  0.121-  57 1.39  78 1.41  25 1.48
  42  0.181  0.662  0.090-  58 1.39  77 1.41  26 1.48
  43  0.180  0.094  0.955-  59 1.39  79 1.41  27 1.48
  44  0.318  0.161  0.590-  60 1.39  80 1.41  28 1.48
  45  0.688  0.679  0.922-  61 1.39  74 1.41  29 1.48
  46  0.310  0.077  0.622-  62 1.39  79 1.41  30 1.48
  47  0.189  0.179  0.922-  63 1.39  80 1.41  31 1.48
  48  0.320  0.594  0.454-  64 1.39  78 1.41  32 1.48
  49  0.623  0.090  0.953-  88 1.09  33 1.39  53 1.40
  50  0.878  0.124  0.609-  99 1.09  34 1.39  56 1.40
  51  0.880  0.632  0.436-  93 1.09  35 1.39  55 1.40
  52  0.622  0.624  0.109-  90 1.09  36 1.39  61 1.40
  53  0.620  0.132  0.937-  98 1.09  37 1.39  49 1.40
  54  0.375  0.666  0.593-  96 1.09  38 1.39  64 1.40
  55  0.876  0.590  0.452-  86 1.09  39 1.39  51 1.40
  56  0.875  0.166  0.593-  87 1.09  40 1.39  50 1.40
  57  0.127  0.589  0.951-  95 1.09  41 1.39  58 1.40
  58  0.122  0.632  0.936-  91 1.09  42 1.39  57 1.40
  59  0.120  0.124  0.109-  92 1.09  43 1.39  63 1.40
  60  0.378  0.131  0.436-  85 1.09  44 1.39  62 1.40
[...]
 142  0.892  0.038  0.615-  18 1.23
 143  0.894  0.718  0.432-  19 1.23
 144  0.607  0.538  0.113-  20 1.23
 145  0.606  0.218  0.931-  21 1.23
 146  0.366  0.750  0.541-  22 1.23
 147  0.870  0.506  0.504-  23 1.23
 148  0.869  0.250  0.540-  24 1.23
 149  0.136  0.506  0.003-  25 1.23
 150  0.103  0.718  0.932-  26 1.23
 151  0.103  0.038  0.114-  27 1.23
 152  0.396  0.217  0.431-  28 1.23
 153  0.631  0.750  0.041-  29 1.23
 154  0.364  0.006  0.504-  30 1.23
 155  0.134  0.250  0.041-  31 1.23
 156  0.397  0.538  0.613-  32 1.23

IMPORTANT INFORMATION: All symmetrisations will be switched off!
NOSYMM: (Re-)initialisation of all symmetry stuff for point group C_1.

Automatic generation of k-mesh.
 generate k-points for:    3    1    4
Space group operators:
 irot       det(A)        alpha          n_x          n_y          n_z        tau_x        tau_y        tau_z
    1     1.000000     0.000000     1.000000     0.000000     0.000000     0.000000     0.000000     0.000000

 Subroutine IBZKPT returns following result:

 Found      7 irreducible k-points:

 Following reciprocal coordinates:
            Coordinates               Weight
  0.000000  0.000000  0.000000      1.000000
  0.333333 -0.000000  0.000000      2.000000
 -0.000000  0.000000  0.250000      2.000000
  0.333333  0.000000  0.250000      2.000000
 -0.333333 -0.000000  0.250000      2.000000
 -0.000000  0.000000  0.500000      1.000000
  0.333333  0.000000  0.500000      2.000000

 Following cartesian coordinates:
            Coordinates               Weight
  0.000000  0.000000  0.000000      1.000000
  0.038144  0.000000  0.000003      2.000000
  0.000008  0.003338  0.038068      2.000000
  0.038152  0.003338  0.038071      2.000000
 -0.038136  0.003338  0.038064      2.000000
  0.000016  0.006677  0.076136      1.000000
  0.038160  0.006677  0.076139      2.000000

 SYSTEM =  flex_MOF
 POSCAR =  CoH_middle

 Startparameter for this run:
   NWRITE =      2    write-flag & timer
   PREC   = normal    normal or accurate (medium, high low for compatibility)
   ISTART =      0    job   : 0-new  1-cont  2-samecut
   ICHARG =      2    charge: 1-file 2-atom 10-const
   ISPIN  =      2    spin polarized calculation?
   LNONCOLLINEAR =      F non collinear calculations
   LSORBIT =      F    spin-orbit coupling
   INIWAV =      1    electr: 0-lowe 1-rand  2-diag
   LASPH  =      F    aspherical Exc in radial PAW
   METAGGA=      F    non-selfconsistent MetaGGA calc.

 Electronic Relaxation 1
   ENCUT  =  600.0 eV  44.10 Ry    6.64 a.u.  17.45 65.51 13.27*2*pi/ulx,y,z
   ENINI  =  600.0     initial cutoff
   ENAUG  =  644.9 eV  augmentation charge cutoff
   NELM   =     80;   NELMIN=  8; NELMDL= -5     # of ELM steps
   EDIFF  = 0.1E-05   stopping-criterion for ELM
   LREAL  =      T    real-space projection
   NLSPLINE    = F    spline interpolate recip. space projectors
   LCOMPAT=      F    compatible to vasp.4.4
   GGA_COMPAT  = T    GGA compatible to vasp.4.4-vasp.4.6
   LMAXPAW     = -100 max onsite density
   LMAXMIX     =    2 max onsite mixed and CHGCAR
   VOSKOWN=      0    Vosko Wilk Nusair interpolation
   ROPT   =   -0.00050  -0.00050  -0.00050  -0.00050
   ROPT   =   -0.00050
 Ionic relaxation
   EDIFFG = -.1E-01   stopping-criterion for IOM
   NSW    =    500    number of steps for IOM
   NBLOCK =      1;   KBLOCK =    500    inner block; outer block
   IBRION =      2    ionic relax: 0-MD 1-quasi-New 2-CG
   NFREE  =      1    steps in history (QN), initial steepest desc. (CG)
   ISIF   =      4    stress and relaxation
   IWAVPR =     11    prediction:  0-non 1-charg 2-wave 3-comb
   ISYM   =      0    0-nonsym 1-usesym 2-fastsym
   LCORR  =      T    Harris-Foulkes like correction to forces

   POTIM  = 0.5000    time-step for ionic-motion
   TEIN   =    0.0    initial temperature
   TEBEG  =    0.0;   TEEND  =   0.0 temperature during run
   SMASS  =  -3.00    Nose mass-parameter (am)
   estimated Nose-frequenzy (Omega)   =  0.10E-29 period in steps =****** mass=  -0.175E-26a.u.
   SCALEE = 1.0000    scale energy and forces
   NPACO  =    256;   APACO  = 16.0  distance and # of slots for P.C.
   PSTRESS=    0.0 pullay stress

  Mass of Ions in am
   POMASS =  12.01 58.93  1.00 14.00 16.00
  Ionic Valenz
   ZVAL   =   4.00  9.00  1.00  5.00  6.00
  Atomic Wigner-Seitz radii
  virtual crystal weights
   VCA    =   1.00  1.00  1.00  1.00  1.00
   NELECT =     604.0000    total number of electrons
   NUPDOWN=      -1.0000    fix difference up-down

 DOS related values:
   EMIN   =  10.00;   EMAX   =-10.00  energy-range for DOS
   EFERMI =   0.00
   ISMEAR =     0;   SIGMA  =   0.05  broadening in eV -4-tet -1-fermi 0-gaus

 Electronic relaxation 2 (details)
   IALGO  =     38    algorithm
[...]
  110        set_charge                            0.884907                            1   3
  111          soft_charge                           0.837341                          1   4
  112            fftwav_mpi                            0.747643                      140   5
  113              fft3d_mpi                             0.675438                    140   6
  114                fftbas_plan_mpi                       0.674975                  140   7
  115                  dfftw_execute                         0.325519                420   8
  116                  map_forward                           0.273845                280   8
  117                    map_gather                            0.070947              140   9
  118                    m_alltoallv_z                         0.060798              140   9
  119                    map_scatter                           0.087439              140   9
  120            pw_charge                             0.072880                      140   5
  121            fft3d_mpi                             0.006944                        2   5
  122              fftbas_plan_mpi                       0.006220                      2   6
  123                dfftw_execute                         0.002189                    6   7
  124                map_backward                          0.002986                    4   7
  125                  map_gather                            0.001154                  4   8
  126                  m_alltoallv_z                         0.001722                  4   8
  127                  map_scatter                           0.000068                  4   8
  128          depsum                                0.003416                          1   4
  129          fft3d_mpi                             0.006579                          2   4
  130            fftbas_plan_mpi                       0.006403                        2   5
  131              dfftw_execute                         0.001127                      6   6
  132              map_backward                          0.003923                      4   6
  133                map_gather                            0.000304                    2   7
  134                m_alltoallv_z                         0.003355                    2   7
  135                map_scatter                           0.000230                    2   7
  136        forloc                                0.086991                            1   3
  137        fornlr                                3.914318                            1   3
  138          rspher_all                            0.090727                          3   4
  139          phaser                                0.296220                         21   4
  140          rpro_isp                              3.510661                         21   4
  141            fftwav_mpi                            2.659435                      504   5
  142              fft3d_mpi                             2.395224                    504   6
  143                fftbas_plan_mpi                       2.393482                  504   7
  144                  dfftw_execute                         1.154419               1512   8
  145                  map_forward                           0.968358               1008   8
  146                    map_gather                            0.245395              504   9
  147                    m_alltoallv_z                         0.222363              504   9
  148                    map_scatter                           0.309564              504   9
  149            rpromu                                0.845323                      126   5
  150              crrexp_mul_wave                       0.420457                  78624   6
  151              rpromu_gemm                           0.275749                  19656   6
  152        fordep                                0.190354                            1   3
  153          setdij_                               0.189871                          6   4
  154        setdij_                               0.626678                           20   3
  155        set_dd_paw                            0.030263                            1   3
  156        strkin                                0.018281                            1   3
  157        strelo                                0.004115                            1   3
  158        strnlr                               11.674445                            1   3
  159          rspher_all                            0.265325                          9   4
  160          phaser                                0.886089                         63   4
  161          rpro_isp                             10.482211                         63   4
  162            fftwav_mpi                            7.910311                     1512   5
  163              fft3d_mpi                             7.142092                   1512   6
  164                fftbas_plan_mpi                       7.137045                 1512   7
  165                  dfftw_execute                         3.465828               4536   8
  166                  map_forward                           2.869306               3024   8
  167                    map_gather                            0.724325             1512   9
  168                    m_alltoallv_z                         0.647272             1512   9
  169                    map_scatter                           0.928208             1512   9
  170            rpromu                                2.555919                      378   5
  171              crrexp_mul_wave                       1.279675                 235872   6
  172              rpromu_gemm                           0.837788                  58968   6
  173        fft3d_mpi                             0.072460                           22   3
  174          fftbas_plan_mpi                       0.070343                         22   4
  175            dfftw_execute                         0.012661                       66   5
  176            map_forward                           0.018202                       20   5
  177              map_gather                            0.000791                     10   6
  178              m_alltoallv_z                         0.015556                     10   6
  179              map_scatter                           0.001693                     10   6
  180            map_backward                          0.024381                       24   5
  181              map_gather                            0.001790                     12   6
  182              m_alltoallv_z                         0.020972                     12   6
  183              map_scatter                           0.001421                     12   6
  184        forhar                                0.155499                            2   3
  185        strehar                               0.005108                            1   3
  186        chggra                                0.012921                            1   3
  187          fft3d_mpi                             0.010987                          3   4
  188            fftbas_plan_mpi                       0.010650                        3   5
  189              dfftw_execute                         0.002605                      9   6
  190              map_forward                           0.004483                      4   6
  191                map_gather                            0.000142                    2   7
  192                m_alltoallv_z                         0.003964                    2   7
  193                map_scatter                           0.000342                    2   7
  194              map_backward                          0.001503                      2   6
  195                map_gather                            0.000122                    1   7
  196                m_alltoallv_z                         0.001252                    1   7
  197                map_scatter                           0.000109                    1   7
  198        brmix                                 0.016955                            1   3
  199          brpre                                 0.000070                          2   4
  200          setg0                                 0.001129                          1   4
  201          broyd                                 0.013028                          1   4
  202            brget                                 0.001639                      255   5
  203            brsav                                 0.000244                       46   5

 Flat profile

 eddav                                 701.871737          46
 total_time                            328.778964           1
 dfftw_execute                         199.475262      261249
 redis_pw                              145.073321       79019
 orth1                                 104.026291       85599
 map_scatter                            56.315472       87253
 redis_proj                             52.479142       99782
 map_gather                             49.151839       87253
 fftbas_plan_mpi                        48.414075       87085
 m_alltoallv_z                          46.948227       87253
 fftwav_mpi                             41.484352       57290
 crrexp_mul_work_add                    40.352462     4442412
 racc0                                  38.014187       28477
 map_forward                            28.694796      115818
 rpro1                                  25.360487       20749
 vhamil                                 23.019348       28477
 crrexp_mul_wave                        19.439301     3577548
 lincom                                 15.746317         658
 phaser                                 10.357528         735
 force_and_stress                        7.853920           1
 w1_copy                                 6.963360       85431
 fftext_mpi                              5.223787       28477
 eccp                                    4.703024        7728
 pw_charge                               3.216642        5880
 kinhamil                                3.001876       28477
 setdij_                                 2.213775          70
 apply_precond                           1.716949       20749
 set_charge                              1.570325          42
 overl                                   1.480584       49240
 set_dd_paw                              1.408161          44
 rpromu_gemm                             1.235897       85176
 overl1                                  1.066066       28477
 setup_precond                           1.043216        7728
 rpromu                                  0.638275         546
 map_backward                            0.590120       58348
 soft_charge                             0.529911          42
 fft3d_mpi                               0.508213       87083
 rspher_all                              0.405417          14
 hamiltmu                                0.401217       28477
 choleski                                0.299137          14
 orthch                                  0.243798           1
 broyd                                   0.238899          42
 raccmu_                                 0.186427       28477
 forhar                                  0.155499           2
 depsum                                  0.146772          42
 w1_projall                              0.135538       20749
 brmix                                   0.097465          42
 forloc                                  0.086991           1
 setg0                                   0.048842          44
 strnlr                                  0.040820           1
 brget                                   0.031526        5187
 truncate_high_frequency_w1              0.027748       36205
 rpro_isp                                0.023784          91
 strkin                                  0.018281           1
 fornlr                                  0.016711           1
 brsav                                   0.011585        1079
 strehar                                 0.005108           1
 brpre                                   0.004797          84
 strelo                                  0.004115           1
 chggra                                  0.001934           1
 fordep                                  0.000484           1
 brgrid                                  0.000357           1
 redis_pw_over_bands                     0.000001           1
  summed up times    2022.60046005249

 Accumulative profile

 total_time                           2022.600460           1
 eddav                                1621.192619          46
 fft3d_mpi                             430.035977       87083
 fftbas_plan_mpi                       429.589791       87085
 fftwav_mpi                            337.664021       57290
 hamiltmu                              240.560513       28477
 dfftw_execute                         199.475262      261249
 redis_pw                              145.073321       79019
 kinhamil                              137.520806       28477
 fftext_mpi                            134.518930       28477
 map_forward                           131.605658      115818
 orth1                                 104.026291       85599
 raccmu_                                79.619142       28477
 racc0                                  78.366649       28477
 map_scatter                            56.315472       87253
 redis_proj                             52.479142       99782
 map_backward                           50.094796       58348
 map_gather                             49.151839       87253
 m_alltoallv_z                          46.948227       87253
 w1_projall                             43.092472       20749
 rpro1                                  42.956933       20749
 crrexp_mul_work_add                    40.352462     4442412
 set_charge                             37.696484          42
 soft_charge                            35.692806          42
 force_and_stress                       25.547215           1
 vhamil                                 23.019348       28477
 crrexp_mul_wave                        19.439301     3577548
 lincom                                 15.746317         658
 rpro_isp                               15.235712          91
 strnlr                                 11.674445           1
 phaser                                 10.357528         735
 w1_copy                                 6.963360       85431
 eccp                                    4.703024        7728
 fornlr                                  3.914318           1
 rpromu                                  3.717026         546
 pw_charge                               3.216642        5880
 setdij_                                 2.213775          70
 orthch                                  1.726310           1
 apply_precond                           1.716949       20749
 overl                                   1.480584       49240
 set_dd_paw                              1.408161          44
 rpromu_gemm                             1.235897       85176
 overl1                                  1.066066       28477
 setup_precond                           1.043216        7728
 brmix                                   0.433114          42
 rspher_all                              0.405417          14
 choleski                                0.299137          14
 broyd                                   0.282010          42
 fordep                                  0.190354           1
 forhar                                  0.155499           2
 depsum                                  0.146772          42
 forloc                                  0.086991           1
 setg0                                   0.048842          44
 brget                                   0.031526        5187
 truncate_high_frequency_w1              0.027748       36205
 strkin                                  0.018281           1
 chggra                                  0.012921           1
 brsav                                   0.011585        1079
 strehar                                 0.005108           1
 brpre                                   0.004797          84
 strelo                                  0.004115           1
 brgrid                                  0.000357           1
 redis_pw_over_bands                     0.000001           1

Profiling took   5.462758  3.152450  0.012830  0.012477 seconds
Profiling took   6.360533 seconds