 vasp.6.0.8 29Jun18 (build Mar 14 2019 11:44:20) complex

 executed on             LinuxIFC date 2020.12.26  00:30:30

 INCAR:
 POTCAR:    PAW_PBE C 08Apr2002
 POTCAR:    PAW_PBE Fe 06Sep2000
 POTCAR:    PAW_PBE H 15Jun2001
 POTCAR:    PAW_PBE N 08Apr2002
 POTCAR:    PAW_PBE O 08Apr2002
 POTCAR:    PAW_PBE C 08Apr2002
   VRHFIN =C: s2p2

   TITEL  = PAW_PBE C 08Apr2002
   POMASS =   12.011; ZVAL   =    4.000    mass and valenz
   ENMAX  =  400.000; ENMIN  =  300.000 eV

 POTCAR:    PAW_PBE Fe 06Sep2000
   VRHFIN =Fe:  d7 s1

   TITEL  = PAW_PBE Fe 06Sep2000
   POMASS =   55.847; ZVAL   =    8.000    mass and valenz
   ENMAX  =  267.882; ENMIN  =  200.911 eV

 POTCAR:    PAW_PBE H 15Jun2001
   VRHFIN =H: ultrasoft test

   TITEL  = PAW_PBE H 15Jun2001
   POMASS =    1.000; ZVAL   =    1.000    mass and valenz
   ENMAX  =  250.000; ENMIN  =  200.000 eV

 POTCAR:    PAW_PBE N 08Apr2002
   VRHFIN =N: s2p3

[...]

 POTCAR:    PAW_PBE O 08Apr2002
   VRHFIN =O: s2p4

   TITEL  = PAW_PBE O 08Apr2002
   POMASS =   16.000; ZVAL   =    6.000    mass and valenz
   ENMAX  =  400.000; ENMIN  =  300.000 eV

 Optimization of the real space projectors (new method)

 maximal supplied QI-value         = 25.13
 optimisation between [QCUT,QGAM] = [ 12.32, 24.88] = [ 42.47,173.37] Ry
 Optimized for a Real-space Cutoff    1.06 Angstroem

   l    n(q)    QCUT    max X(q) W(low)/X(q) W(high)/X(q)  e(spline)
   0      8    12.315   115.676    0.34E-03    0.18E-03    0.23E-06
   0      8    12.315    87.132    0.34E-03    0.18E-03    0.22E-06
   1      7    12.315     4.429    0.45E-03    0.12E-03    0.18E-06
   1      7    12.315     2.733    0.35E-03    0.97E-04    0.15E-06
 Optimization of the real space projectors (new method)

[...]

   l    n(q)    QCUT    max X(q) W(low)/X(q) W(high)/X(q)  e(spline)
   0      9    12.315    79.467    0.14E-03    0.22E-04    0.37E-06
   0      9    12.315    66.151    0.14E-03    0.23E-04    0.36E-06
   1      8    12.315    22.077    0.30E-03    0.54E-03    0.45E-06
   1      8    12.315    15.894    0.30E-03    0.55E-03    0.45E-06
 Optimization of the real space projectors (new method)

 maximal supplied QI-value         = 24.76
 optimisation between [QCUT,QGAM] = [ 12.38, 25.00] = [ 42.90,175.06] Ry
 Optimized for a Real-space Cutoff    1.13 Angstroem

   l    n(q)    QCUT    max X(q) W(low)/X(q) W(high)/X(q)  e(spline)
   0      8    12.378    20.381    0.16E-03    0.54E-05    0.27E-06
   0      8    12.378    15.268    0.17E-03    0.61E-05    0.29E-06
   1      8    12.378     5.964    0.38E-03    0.23E-03    0.28E-06
   1      8    12.378     5.382    0.33E-03    0.20E-03    0.25E-06
  PAW_PBE C 08Apr2002                   :
  PAW_PBE Fe 06Sep2000                  :
  PAW_PBE H 15Jun2001                   :
  PAW_PBE N 08Apr2002                   :
  PAW_PBE O 08Apr2002                   :

 POSCAR:  C Fe  H  N  O
  positions in direct lattice
  velocities in cartesian coordinates
 exchange correlation table for  LEXCH =        8
   RHO(1)=    0.500       N(1)  =     2000
   RHO(2)=  100.500       N(2)  =     4000

 ion  position               nearest neighbor table
   1  0.853  0.966  0.103- 107 1.09 117 1.35  65 1.40
   2  0.926  0.977  0.442- 112 1.09 118 1.35  65 1.40
   3  0.849  0.817  0.898- 116 1.09 119 1.35  66 1.40
   4  0.645  0.465  0.611- 110 1.09 120 1.35  67 1.40
   5  0.577  0.306  0.068- 111 1.09 121 1.35  68 1.40
   6  0.073  0.805  0.059- 115 1.09 122 1.35  69 1.40
   7  0.573  0.476  0.950- 101 1.09 123 1.35  67 1.40
   8  0.649  0.318  0.405- 113 1.09 124 1.35  68 1.40
   9  0.422  0.475  0.451- 114 1.09 125 1.35  70 1.40
  10  0.145  0.816  0.397- 104 1.09 126 1.35  69 1.40
  11  0.078  0.975  0.941- 105 1.09 127 1.35  71 1.40
  12  0.426  0.304  0.570- 102 1.09 128 1.35  72 1.40
  13  0.921  0.806  0.559- 108 1.09 129 1.35  66 1.40
  14  0.150  0.963  0.603- 109 1.09 130 1.35  71 1.40
  15  0.353  0.315  0.909- 106 1.09 131 1.35  72 1.40
  16  0.350  0.464  0.113- 103 1.09 132 1.35  70 1.40
  17  0.776  0.044  0.451- 141 1.23 133 1.41  33 1.48
  18  0.863  0.069  0.072- 142 1.23 133 1.42  34 1.48
  19  0.856  0.715  0.935- 143 1.23 134 1.42  35 1.48
  20  0.637  0.568  0.575- 144 1.23 135 1.42  36 1.48
  21  0.644  0.215  0.442- 145 1.23 136 1.42  37 1.48
  22  0.224  0.737  0.055- 146 1.23 137 1.41  38 1.48
  23  0.724  0.544  0.953- 147 1.23 135 1.41  39 1.48
  24  0.730  0.239  0.063- 148 1.23 136 1.41  40 1.48
  25  0.271  0.543  0.455- 149 1.23 138 1.41  41 1.48
  26  0.137  0.713  0.435- 150 1.23 137 1.42  42 1.48
  27  0.145  0.066  0.567- 151 1.23 139 1.42  43 1.48
  28  0.363  0.212  0.940- 152 1.23 140 1.42  44 1.48
  29  0.770  0.738  0.556- 153 1.23 134 1.41  45 1.48
  30  0.231  0.041  0.946- 154 1.23 139 1.41  46 1.48
  31  0.276  0.236  0.562- 155 1.23 140 1.41  47 1.48
  32  0.358  0.566  0.076- 156 1.23 138 1.42  48 1.48
  33  0.742  0.088  0.443-  49 1.39  73 1.42  17 1.48
  34  0.830  0.112  0.077-  50 1.39  73 1.42  18 1.48
  35  0.823  0.671  0.933-  51 1.39  74 1.42  19 1.48
  36  0.670  0.611  0.576-  52 1.39  75 1.42  20 1.48
  37  0.678  0.171  0.439-  53 1.39  76 1.42  21 1.48
  38  0.259  0.693  0.067-  54 1.39  77 1.42  22 1.48
  39  0.758  0.588  0.941-  55 1.39  75 1.42  23 1.48
  40  0.765  0.196  0.072-  56 1.39  76 1.42  24 1.48
  41  0.236  0.586  0.444-  57 1.39  78 1.42  25 1.48
  42  0.171  0.670  0.434-  58 1.39  77 1.42  26 1.48
  43  0.178  0.109  0.571-  59 1.39  79 1.42  27 1.48
  44  0.330  0.168  0.934-  60 1.39  80 1.42  28 1.48
  45  0.735  0.695  0.567-  61 1.39  74 1.42  29 1.48
  46  0.266  0.085  0.937-  62 1.39  79 1.42  30 1.48
  47  0.243  0.193  0.569-  63 1.39  80 1.42  31 1.48
  48  0.324  0.610  0.078-  64 1.39  78 1.42  32 1.48
  49  0.683  0.097  0.619-  88 1.09  33 1.39  53 1.40
  50  0.857  0.145  0.900-  99 1.09  34 1.39  56 1.40
  51  0.850  0.638  0.110-  93 1.09  35 1.39  55 1.40
  52  0.643  0.644  0.398-  90 1.09  36 1.39  61 1.40
  53  0.651  0.139  0.617-  98 1.09  37 1.39  49 1.40
  54  0.319  0.684  0.894-  96 1.09  38 1.39  64 1.40
  55  0.818  0.597  0.115-  86 1.09  39 1.39  51 1.40
  56  0.825  0.187  0.898-  87 1.09  40 1.39  50 1.40
  57  0.176  0.596  0.618-  95 1.09  41 1.39  58 1.40
  58  0.144  0.637  0.613-  91 1.09  42 1.39  57 1.40
  59  0.151  0.142  0.395-  92 1.09  43 1.39  63 1.40
  60  0.357  0.135  0.110-  85 1.09  44 1.39  62 1.40
[...]
 142  0.913  0.059  0.914-  18 1.23
 143  0.907  0.724  0.091-  19 1.23
 144  0.586  0.558  0.418-  20 1.23
 145  0.593  0.224  0.600-  21 1.23
 146  0.244  0.766  0.894-  22 1.23
 147  0.744  0.515  0.114-  23 1.23
 148  0.750  0.268  0.902-  24 1.23
 149  0.250  0.514  0.617-  25 1.23
 150  0.087  0.723  0.592-  26 1.23
 151  0.095  0.057  0.409-  27 1.23
 152  0.413  0.221  0.098-  28 1.23
 153  0.749  0.767  0.395-  29 1.23
 154  0.251  0.012  0.105-  30 1.23
 155  0.255  0.266  0.404-  31 1.23
 156  0.408  0.557  0.919-  32 1.23

IMPORTANT INFORMATION: All symmetrisations will be switched off!
NOSYMM: (Re-)initialisation of all symmetry stuff for point group C_1.

                                     Primitive cell

  volume of cell :    2697.9482

  direct lattice vectors                    reciprocal lattice vectors
    15.810742254 -0.003244316  0.022456214     0.063248226  0.000012580 -0.000060328
    -0.004615609 31.516583233  1.733221772     0.000009646  0.031849784 -0.002190329
     0.005109614  0.373757105  5.434860785    -0.000264411 -0.010157210  0.184696116

  length of vectors
    15.810758534 31.564205957  5.447699719     0.063248256  0.031925012  0.184975388

  position of ions in fractional coordinates (direct lattice)
     0.853200521  0.965803392  0.103291841
     0.926146698  0.976554087  0.441815006
     0.849003775  0.817393698  0.898119152
     0.645396913  0.464753964  0.611095242
     0.577020135  0.305629729  0.068268854
     0.072537389  0.804591738  0.058987982
     0.572879959  0.476047663  0.950417400
     0.649420531  0.317895935  0.405047291
     0.421993363  0.475291477  0.451398855
     0.145253795  0.816086709  0.396636903
     0.077588071  0.975036094  0.940901254
     0.426179429  0.304233353  0.569822288
     0.921332466  0.805610394  0.559435380
     0.149982415  0.962732030  0.603239693
     0.353272946  0.315012879  0.909355582
     0.349803764  0.463633121  0.113154509
     0.776078028  0.044399705  0.451026542
     0.863052921  0.068662269  0.072272320
     0.856436957  0.714575068  0.934511963
     0.636722312  0.567520574  0.574691210
     0.643595293  0.215040231  0.442232279
     0.224022324  0.737044374  0.055342722
     0.723794132  0.543771471  0.952735880
     0.730222425  0.239283395  0.062654798
     0.270640863  0.542656974  0.455409802
     0.137107209  0.713372215  0.435092981
     0.144716241  0.065641539  0.567274171
     0.363091195  0.212035990  0.939915155
     0.769560148  0.738386148  0.556204299
     0.231202549  0.041235099  0.945549176
     0.276202360  0.236437468  0.562468704
     0.357783337  0.566423182  0.076249701
     0.742195824  0.088191873  0.443240773
     0.829778670  0.112379362  0.076993255
     0.822891572  0.670854343  0.932533920
     0.670386624  0.611258890  0.576135870
     0.677580052  0.171434368  0.439064257
     0.258721340  0.693334494  0.067419503
     0.758162520  0.587541489  0.941408288
     0.765016773  0.195622329  0.072465521
     0.236191375  0.586404807  0.444144466
     0.171002710  0.669683867  0.434121030
     0.178438666  0.109282031  0.571499045
     0.330047798  0.168279352  0.934207792
     0.735213502  0.694606606  0.567130296
     0.265794749  0.084943684  0.936664741
     0.242548762  0.192603522  0.569323799
     0.324002798  0.610106312  0.077612431
     0.682757875  0.097226595  0.618664877
     0.857036863  0.145215216  0.900181222
     0.850211642  0.638227140  0.110122667
     0.643246399  0.643880440  0.398216572
     0.650563746  0.138642566  0.616514225
     0.318638599  0.684082788  0.893842571
     0.817952224  0.596779267  0.114621385
     0.824737655  0.186614367  0.897768743
     0.176393897  0.595692528  0.617978721
     0.143936006  0.637114398  0.612926408
     0.151292121  0.142165089  0.395342177
     0.357363942  0.135350434  0.109847202
[...]
     0.913078525  0.059458048  0.913894788
     0.906625164  0.723949735  0.091415152
     0.586486035  0.558107431  0.418015158
     0.593314099  0.224198700  0.600075568
     0.244455460  0.765942964  0.893528237
     0.744358788  0.514803878  0.113607867
     0.750359540  0.268396703  0.901808348
     0.250176062  0.513722553  0.616981074
     0.086907016  0.722808352  0.592429498
     0.094724253  0.056525428  0.409203922
     0.412876216  0.221197287  0.098417939
     0.749123117  0.767363632  0.395271970
     0.251385316  0.012033240  0.105447986
     0.255265339  0.265731663  0.404088106
     0.408186085  0.557034221  0.919320470

  ion indices of the primitive-cell ions
   primitive index   ion index
                 1           1
                 2           2
                 3           3
                 4           4
                 5           5
                 6           6
                 7           7
                 8           8
[...]
   0.203E+03 0.183E+02 0.112E+02   -.205E+03 -.143E+02 -.108E+02   0.188E+01 -.407E+01 -.445E+00   0.245E-04 -.370E-04 -.361E-05
   -.711E+02 0.930E+02 0.145E+02   0.723E+02 -.972E+02 -.144E+02   -.125E+01 0.428E+01 -.741E-01   -.324E-04 0.108E-03 -.152E-04
   -.746E+02 -.886E+02 -.148E+02   0.759E+02 0.929E+02 0.148E+02   -.125E+01 -.429E+01 0.169E-01   -.157E-04 0.452E-04 -.371E-05
   0.688E+02 0.923E+02 0.151E+02   -.700E+02 -.966E+02 -.152E+02   0.118E+01 0.431E+01 0.158E-01   -.147E-05 -.138E-03 0.149E-04
   0.202E+03 -.185E+02 -.116E+02   -.204E+03 0.144E+02 0.112E+02   0.187E+01 0.407E+01 0.454E+00   0.627E-04 0.132E-03 0.687E-05
   -.204E+03 0.203E+02 0.116E+02   0.206E+03 -.162E+02 -.111E+02   -.190E+01 -.405E+01 -.486E+00   -.473E-04 0.738E-04 -.237E-05
   0.200E+03 -.148E+02 -.108E+02   -.202E+03 0.107E+02 0.103E+02   0.183E+01 0.410E+01 0.514E+00   0.174E-04 -.158E-03 -.271E-05
   0.749E+02 -.906E+02 -.146E+02   -.761E+02 0.949E+02 0.146E+02   0.122E+01 -.430E+01 0.568E-01   0.691E-05 -.214E-04 0.351E-05
   0.140E+03 0.737E+02 -.173E+02   -.141E+03 -.737E+02 0.180E+02   0.507E+00 -.603E-01 -.647E+00   0.503E-04 0.412E-04 0.851E-06
   -.325E+02 -.583E+02 0.169E+02   0.329E+02 0.588E+02 -.175E+02   -.358E+00 -.450E+00 0.606E+00   0.813E-05 -.161E-04 -.555E-05
   -.280E+02 0.558E+02 -.170E+02   0.284E+02 -.563E+02 0.176E+02   -.357E+00 0.446E+00 -.607E+00   0.328E-04 0.692E-04 -.778E-05
   0.285E+02 -.570E+02 0.172E+02   -.288E+02 0.575E+02 -.178E+02   0.361E+00 -.432E+00 0.613E+00   -.194E-04 -.635E-05 0.480E-05
   0.249E+02 0.542E+02 -.174E+02   -.253E+02 -.547E+02 0.180E+02   0.349E+00 0.444E+00 -.613E+00   0.605E-05 -.400E-04 0.791E-05
   -.142E+03 -.751E+02 0.171E+02   0.142E+03 0.751E+02 -.177E+02   -.514E+00 0.514E-01 0.641E+00   -.391E-04 0.541E-04 0.320E-06
   -.144E+03 0.751E+02 -.168E+02   0.144E+03 -.750E+02 0.175E+02   -.515E+00 -.569E-01 -.644E+00   -.210E-04 -.268E-05 -.293E-05
   -.147E+03 -.787E+02 0.169E+02   0.147E+03 0.787E+02 -.175E+02   -.520E+00 0.408E-01 0.641E+00   -.363E-04 -.935E-04 0.110E-05
   0.145E+03 0.768E+02 -.175E+02   -.145E+03 -.768E+02 0.182E+02   0.512E+00 -.472E-01 -.649E+00   0.246E-04 -.210E-05 -.223E-05
   0.297E+02 0.574E+02 -.173E+02   -.300E+02 -.578E+02 0.179E+02   0.354E+00 0.433E+00 -.611E+00   -.223E-04 0.634E-04 -.669E-05
   0.263E+02 -.541E+02 0.173E+02   -.267E+02 0.545E+02 -.179E+02   0.349E+00 -.447E+00 0.611E+00   -.116E-04 -.202E-04 -.447E-05
   -.315E+02 0.577E+02 -.170E+02   0.319E+02 -.582E+02 0.175E+02   -.360E+00 0.447E+00 -.607E+00   -.126E-05 -.415E-04 0.747E-05
   0.144E+03 -.770E+02 0.171E+02   -.144E+03 0.769E+02 -.177E+02   0.514E+00 0.493E-01 0.648E+00   0.342E-04 0.655E-04 0.276E-06
   -.146E+03 0.788E+02 -.165E+02   0.147E+03 -.788E+02 0.171E+02   -.516E+00 -.396E-01 -.641E+00   -.502E-04 0.344E-04 0.109E-05
   0.142E+03 -.741E+02 0.170E+02   -.143E+03 0.740E+02 -.176E+02   0.504E+00 0.598E-01 0.651E+00   0.374E-04 -.983E-04 0.174E-05
   -.263E+02 -.560E+02 0.170E+02   0.267E+02 0.564E+02 -.176E+02   -.354E+00 -.441E+00 0.614E+00   0.723E-05 -.915E-05 0.414E-05
   0.208E+03 0.165E+03 -.889E+02   -.209E+03 -.167E+03 0.905E+02   0.862E+00 0.132E+01 -.165E+01   0.602E-04 0.784E-04 -.122E-04
   -.171E+03 -.120E+03 0.906E+02   0.173E+03 0.120E+03 -.922E+02   -.147E+01 0.253E+00 0.171E+01   -.353E-04 -.587E-04 0.923E-05
   -.168E+03 0.118E+03 -.902E+02   0.169E+03 -.118E+03 0.918E+02   -.148E+01 -.269E+00 -.171E+01   0.295E-04 0.597E-04 0.461E-05
   0.168E+03 -.119E+03 0.903E+02   -.169E+03 0.118E+03 -.919E+02   0.147E+01 0.269E+00 0.171E+01   -.217E-04 -.987E-05 -.625E-05
   0.165E+03 0.117E+03 -.907E+02   -.166E+03 -.117E+03 0.924E+02   0.147E+01 -.261E+00 -.172E+01   0.400E-04 0.147E-04 -.815E-05
   -.209E+03 -.167E+03 0.892E+02   0.209E+03 0.168E+03 -.908E+02   -.862E+00 -.131E+01 0.167E+01   -.286E-04 0.278E-04 -.434E-05
   -.211E+03 0.167E+03 -.886E+02   0.212E+03 -.168E+03 0.902E+02   -.871E+00 0.132E+01 -.165E+01   -.110E-04 0.834E-05 0.267E-05
   -.213E+03 -.170E+03 0.888E+02   0.214E+03 0.171E+03 -.904E+02   -.863E+00 -.133E+01 0.165E+01   -.589E-04 -.121E-03 0.163E-04
   0.211E+03 0.168E+03 -.894E+02   -.212E+03 -.169E+03 0.910E+02   0.864E+00 0.131E+01 -.166E+01   0.254E-04 0.138E-04 0.919E-07
   0.169E+03 0.119E+03 -.906E+02   -.170E+03 -.119E+03 0.923E+02   0.147E+01 -.270E+00 -.171E+01   -.861E-05 0.541E-04 0.204E-05
   0.167E+03 -.117E+03 0.905E+02   -.168E+03 0.117E+03 -.922E+02   0.147E+01 0.256E+00 0.172E+01   0.279E-04 -.624E-04 0.943E-05
   -.171E+03 0.120E+03 -.903E+02   0.172E+03 -.120E+03 0.920E+02   -.146E+01 -.248E+00 -.171E+01   -.366E-04 0.141E-04 -.770E-05
[...]
   -.131E+03 0.712E+02 -.189E+03   0.166E+03 -.558E+02 0.227E+03   -.350E+02 -.155E+02 -.383E+02   0.510E-04 0.168E-03 -.217E-04
   0.134E+03 -.725E+02 0.189E+03   -.169E+03 0.570E+02 -.227E+03   0.351E+02 0.155E+02 0.383E+02   -.317E-04 -.306E-04 0.328E-06
   0.128E+03 0.706E+02 -.189E+03   -.163E+03 -.554E+02 0.227E+03   0.350E+02 -.152E+02 -.384E+02   0.348E-04 -.206E-03 0.839E-05
   -.472E+03 -.325E+03 0.181E+03   0.486E+03 0.362E+03 -.218E+03   -.144E+02 -.372E+02 0.363E+02   -.967E-04 0.190E-03 0.258E-05
   -.475E+03 0.325E+03 -.180E+03   0.490E+03 -.363E+03 0.216E+03   -.146E+02 0.373E+02 -.361E+02   -.294E-04 -.123E-03 0.103E-04
   -.475E+03 -.334E+03 0.181E+03   0.489E+03 0.371E+03 -.217E+03   -.142E+02 -.375E+02 0.361E+02   -.342E-04 -.209E-03 0.164E-04
   0.476E+03 0.330E+03 -.182E+03   -.490E+03 -.367E+03 0.218E+03   0.144E+02 0.372E+02 -.362E+02   0.262E-04 -.103E-03 0.506E-05
   0.135E+03 0.735E+02 -.189E+03   -.170E+03 -.579E+02 0.227E+03   0.350E+02 -.156E+02 -.383E+02   -.257E-04 0.153E-03 -.249E-04
   0.130E+03 -.707E+02 0.190E+03   -.164E+03 0.556E+02 -.228E+03   0.349E+02 0.151E+02 0.386E+02   0.630E-05 0.704E-04 0.181E-04
   -.137E+03 0.738E+02 -.191E+03   0.172E+03 -.586E+02 0.230E+03   -.348E+02 -.152E+02 -.387E+02   -.183E-04 -.207E-03 0.460E-05
   0.475E+03 -.331E+03 0.180E+03   -.489E+03 0.368E+03 -.216E+03   0.145E+02 -.373E+02 0.361E+02   0.855E-04 0.220E-03 -.475E-05
   -.475E+03 0.335E+03 -.179E+03   0.489E+03 -.373E+03 0.215E+03   -.143E+02 0.376E+02 -.359E+02   -.101E-03 0.121E-03 -.269E-04
   0.476E+03 -.327E+03 0.177E+03   -.491E+03 0.365E+03 -.212E+03   0.148E+02 -.377E+02 0.355E+02   0.511E-04 -.224E-03 0.227E-04
   -.129E+03 -.708E+02 0.188E+03   0.164E+03 0.554E+02 -.227E+03   -.351E+02 0.155E+02 0.382E+02   -.243E-05 -.202E-04 0.275E-05
   -.211E+01 0.145E-01 -.171E+00   -.128E-11 -.149E-12 0.171E-12   0.204E+01 -.400E-02 0.180E+00   0.270E-03 -.536E-05 -.220E-05

 POSITION                                       TOTAL-FORCE (eV/Angst)
     13.48580     30.47466      2.25449        -0.000482     -0.002504     -0.001315
     14.64082     30.93977      4.11459        -0.001338      0.001466      0.003002
     13.42420     26.09438      6.31694         0.001658      0.001004     -0.001128
     10.20518     14.87376      4.14123         0.000334     -0.000742      0.002376
      9.12205      9.65605      0.91371         0.000256      0.003171     -0.002231
      1.14346     25.37979      1.71676        -0.000776     -0.001595     -0.003964
      9.06032     15.35676      6.00335        -0.001817      0.000331      0.001330
     10.26842     10.16828      2.76694         0.003893      0.002113     -0.002367
      6.67214     15.14691      3.28655        -0.001303      0.000820     -0.001409
      2.29483     25.86804      3.57339         0.002454      0.000429     -0.000762
      1.22703     31.08122      6.80536        -0.000137      0.004670      0.005066
      6.73972      9.79999      3.63378        -0.000988     -0.000881     -0.002189
     14.56609     25.59619      4.45744         0.000553     -0.001442     -0.002841
      2.36997     30.56700      4.95052         0.001976      0.001841      0.000725
      5.58870     10.26686      5.49614        -0.001828     -0.000412     -0.001546
      5.52910     14.65329      1.42641         0.000924      0.000014     -0.001850
     12.27247      1.56538      2.54565        -0.000517     -0.002437     -0.001310
     13.64556      2.18821      0.53118        -0.001072     -0.001426      0.000887
     13.54238     22.86747      6.33669         0.002703      0.002324      0.000065
     10.06737     18.09904      4.12130        -0.002537      0.001539      0.000044
     10.17699      6.94053      2.79064         0.000502     -0.003466     -0.001423
      3.53884     23.24908      1.58327        -0.002774      0.000364     -0.003488
     11.44608     17.49156      6.13672        -0.003778     -0.001122      0.001095
     11.54457      7.56244      0.77165         0.004566     -0.003980      0.001387
      4.27886     17.27203      3.42171        -0.000715      0.001129      0.005697
      2.16670     22.64523      3.60418        -0.003047      0.001426     -0.000020
      2.29067      2.28035      3.20008         0.000231      0.000495     -0.000208
      5.74457      7.03277      5.48397        -0.000787     -0.003526      0.001779
     12.16675     23.47680      4.31996         0.001311     -0.000810     -0.000859
      3.66012      1.65225      5.21559        -0.002887      0.002836      0.002706
      4.36875      7.66103      3.47294         0.000793     -0.002275     -0.001515
      5.65460     17.87906      1.40418        -0.000891     -0.004113     -0.003539
     11.73652      2.94276      2.57847        -0.000211      0.000695      0.000597
     13.11929      3.56790      0.63186        -0.001190     -0.004208      0.000506
     13.01220     21.48891      6.24941         0.001155     -0.000191      0.004775
     10.59943     19.47795      4.20572        -0.000099      0.000393      0.001207
     10.71450      5.56493      2.69860        -0.000100     -0.000565     -0.000705
      4.08772     21.87589      1.57393         0.000212      0.000700     -0.001660
     11.98921     18.86670      6.15179        -0.002480     -0.001422     -0.001987
     12.09495      6.18995      0.75008        -0.004521      0.001421     -0.000043
      3.73392     18.64671      3.43554        -0.000935      0.003920     -0.002768
      2.70281     21.26785      3.52394        -0.001895     -0.002500      0.000817
      2.82366      3.65722      3.29943        -0.000222      0.000115      0.001728
      5.22230      5.65169      5.37637        -0.000057      0.004134     -0.002066
     11.62396     22.10121      4.30269         0.000568      0.000868      0.004998
      4.20681      3.02636      5.24384        -0.000772     -0.003979     -0.002311
      3.83690      6.28221      3.43347        -0.000590      0.001505      0.001542
      5.12031     19.25642      1.48654         0.001546      0.002255      0.002348
     10.79762      3.29327      3.54620        -0.001632      0.003063      0.000541
     13.55432      4.91036      5.16330        -0.001239      0.000104      0.001433
     13.44009     20.15314      1.72378        -0.000594      0.003481     -0.004226
     10.16927     20.43966      3.29468         0.001519     -0.004666      0.001543
     10.28841      4.59786      3.60558         0.000781     -0.002691     -0.000197
      5.03932     21.89300      6.05073        -0.000014      0.001903      0.000843
     12.93026     18.84863      1.67567        -0.001563     -0.001004      0.002498
     13.04344      6.21432      5.22121        -0.002449     -0.001558      0.002809
      2.78933     19.00459      4.39506         0.001292     -0.001123      0.001544
      2.27593     20.30829      4.43866         0.000645      0.001691     -0.001521
      2.39340      4.62783      2.39843        -0.002044      0.001332     -0.001572
      5.65013      4.30568      0.83962         0.000802     -0.002496      0.001742
[...]
     14.44084      2.21253      5.09045        -0.000409     -0.001114      0.000728
     14.33154     22.84765      1.77195         0.002423      0.000857     -0.001494
      9.27234     17.74397      3.25235        -0.002210      0.000824      0.003377
      9.38277      7.28833      3.66324         0.001020      0.001050     -0.000367
      3.86605     24.47307      6.18924        -0.003378     -0.001611      0.001608
     11.76707     16.26491      1.52643         0.000938      0.000410      0.000820
     11.86711      8.79357      5.38324         0.001919     -0.000499     -0.000564
      3.95625     16.42057      4.24922         0.000584      0.001161      0.003021
      1.37376     23.00159      4.47451        -0.003799     -0.002261     -0.005267
      1.49949      1.93412      2.32406        -0.000669     -0.001202      0.000686
      6.52736      7.00683      0.92754         0.001139      0.002524     -0.004519
     11.84267     24.32999      3.49508        -0.001608      0.000318     -0.002559
      3.97507      0.41784      0.59960         0.001379      0.002315     -0.002058
      4.03677      8.52516      2.66247        -0.001625     -0.000616     -0.004447
      6.45585     17.89809      5.97101        -0.000064      0.000138      0.000914
    total drift:                               -0.072128      0.010490      0.009472

  FREE ENERGIE OF THE ION-ELECTRON SYSTEM (eV)
  free  energy   TOTEN  =     -1186.29949246 eV

  energy  without entropy=    -1186.27628050  energy(sigma->0) =    -1186.28788648

 reached required accuracy - stopping structural energy minimisation
 writing wavefunctions

 total charge

[...]

 magnetization (x)

# of ion       s       p       d       tot
    1        0.003   0.019   0.000   0.022
    2        0.003   0.018   0.000   0.021
    3        0.003   0.019   0.000   0.022
    4        0.003   0.019   0.000   0.022
    5        0.003   0.018   0.000   0.021
    6        0.003   0.018   0.000   0.021
    7        0.003   0.018   0.000   0.021
    8        0.003   0.019   0.000   0.022
    9        0.003   0.019   0.000   0.021
   10        0.003   0.019   0.000   0.022
   11        0.003   0.018   0.000   0.021
   12        0.003   0.019   0.000   0.021
   13        0.003   0.018   0.000   0.021
   14        0.003   0.019   0.000   0.022
   15        0.003   0.019   0.000   0.022
   16        0.003   0.019   0.000   0.022
   17        0.000   0.001   0.000   0.001
   18        0.000   0.001   0.000   0.001
   19        0.000   0.001   0.000   0.001
   20        0.000   0.001   0.000   0.001
   21        0.000   0.001   0.000   0.001
   22        0.000   0.001   0.000   0.001
   23        0.000   0.001   0.000   0.001
   24        0.000   0.001   0.000   0.001
   25        0.000   0.001   0.000   0.001
   26        0.000   0.001   0.000   0.001
   27        0.000   0.001   0.000   0.001
   28        0.000   0.001   0.000   0.001
   29        0.000   0.001   0.000   0.001
   30        0.000   0.001   0.000   0.001
   31        0.000   0.001   0.000   0.001
   32        0.000   0.001   0.000   0.001
   33        0.000   0.001   0.000   0.001
   34        0.000   0.001   0.000   0.001
   35        0.000   0.001   0.000   0.001
   36        0.000   0.001   0.000   0.001
   37        0.000   0.001   0.000   0.001
   38        0.000   0.001   0.000   0.001
   39        0.000   0.001   0.000   0.001
   40        0.000   0.001   0.000   0.001
   41        0.000   0.001   0.000   0.001
   42        0.000   0.001   0.000   0.001
   43        0.000   0.001   0.000   0.001
   44        0.000   0.001   0.000   0.001
   45        0.000   0.001   0.000   0.001
   46        0.000   0.001   0.000   0.001
   47        0.000   0.001   0.000   0.001
   48        0.000   0.001   0.000   0.001
   49        0.000   0.000   0.000   0.000
   50        0.000   0.000   0.000   0.000
   51        0.000   0.000   0.000   0.000
   52        0.000   0.000   0.000   0.000
   53        0.000   0.000   0.000   0.000
   54        0.000   0.000   0.000   0.000
   55        0.000   0.000   0.000   0.000
   56        0.000   0.000   0.000   0.000
   57        0.000   0.000   0.000   0.000
   58        0.000   0.000   0.000   0.000
   59        0.000   0.000   0.000   0.000
   60        0.000   0.000   0.000   0.000
[...]
  142        0.000   0.001   0.000   0.001
  143        0.000   0.001   0.000   0.002
  144        0.000   0.001   0.000   0.002
  145        0.000   0.001   0.000   0.002
  146        0.000   0.002   0.000   0.002
  147        0.000   0.002   0.000   0.002
  148        0.000   0.002   0.000   0.002
  149        0.000   0.002   0.000   0.002
  150        0.000   0.001   0.000   0.002
  151        0.000   0.001   0.000   0.002
  152        0.000   0.001   0.000   0.001
  153        0.000   0.002   0.000   0.002
  154        0.000   0.002   0.000   0.002
  155        0.000   0.002   0.000   0.002
  156        0.000   0.001   0.000   0.002
tot          0.339   1.423  13.697  15.459