 vasp.5.4.4.18Apr17-6-g9f103f2a35 (build Nov 13 2020 05:28:38) complex

 executed on             LinuxIFC date 2020.12.21  20:25:15

 INCAR:
 POTCAR:    PAW_PBE C 08Apr2002
 POTCAR:    PAW_PBE Fe 06Sep2000
 POTCAR:    PAW_PBE H 15Jun2001
 POTCAR:    PAW_PBE N 08Apr2002
 POTCAR:    PAW_PBE O 08Apr2002
 POTCAR:    PAW_PBE C 08Apr2002
   VRHFIN =C: s2p2

   TITEL  = PAW_PBE C 08Apr2002
   POMASS =   12.011; ZVAL   =    4.000    mass and valenz
   ENMAX  =  400.000; ENMIN  =  300.000 eV

 POTCAR:    PAW_PBE Fe 06Sep2000
   VRHFIN =Fe:  d7 s1

   TITEL  = PAW_PBE Fe 06Sep2000
   POMASS =   55.847; ZVAL   =    8.000    mass and valenz
   ENMAX  =  267.882; ENMIN  =  200.911 eV

 POTCAR:    PAW_PBE H 15Jun2001
   VRHFIN =H: ultrasoft test

   TITEL  = PAW_PBE H 15Jun2001
   POMASS =    1.000; ZVAL   =    1.000    mass and valenz
   ENMAX  =  250.000; ENMIN  =  200.000 eV

 POTCAR:    PAW_PBE N 08Apr2002
   VRHFIN =N: s2p3

[...]

 POTCAR:    PAW_PBE O 08Apr2002
   VRHFIN =O: s2p4

   TITEL  = PAW_PBE O 08Apr2002
   POMASS =   16.000; ZVAL   =    6.000    mass and valenz
   ENMAX  =  400.000; ENMIN  =  300.000 eV

 Optimization of the real space projectors (new method)

 maximal supplied QI-value         = 25.13
 optimisation between [QCUT,QGAM] = [ 12.32, 24.88] = [ 42.47,173.37] Ry
 Optimized for a Real-space Cutoff    1.06 Angstroem

   l    n(q)    QCUT    max X(q) W(low)/X(q) W(high)/X(q)  e(spline)
   0      8    12.315   115.676    0.34E-03    0.18E-03    0.23E-06
   0      8    12.315    87.132    0.34E-03    0.18E-03    0.22E-06
   1      7    12.315     4.429    0.45E-03    0.12E-03    0.18E-06
   1      7    12.315     2.733    0.35E-03    0.97E-04    0.15E-06
 Optimization of the real space projectors (new method)

[...]

   l    n(q)    QCUT    max X(q) W(low)/X(q) W(high)/X(q)  e(spline)
   0      9    12.315    79.467    0.14E-03    0.22E-04    0.37E-06
   0      9    12.315    66.151    0.14E-03    0.23E-04    0.36E-06
   1      8    12.315    22.077    0.30E-03    0.54E-03    0.45E-06
   1      8    12.315    15.894    0.30E-03    0.55E-03    0.45E-06
 Optimization of the real space projectors (new method)

 maximal supplied QI-value         = 24.76
 optimisation between [QCUT,QGAM] = [ 12.38, 25.00] = [ 42.90,175.06] Ry
 Optimized for a Real-space Cutoff    1.13 Angstroem

   l    n(q)    QCUT    max X(q) W(low)/X(q) W(high)/X(q)  e(spline)
   0      8    12.378    20.381    0.16E-03    0.54E-05    0.27E-06
   0      8    12.378    15.268    0.17E-03    0.61E-05    0.29E-06
   1      8    12.378     5.964    0.38E-03    0.23E-03    0.28E-06
   1      8    12.378     5.382    0.33E-03    0.20E-03    0.25E-06
  PAW_PBE C 08Apr2002                   :
  PAW_PBE Fe 06Sep2000                  :
  PAW_PBE H 15Jun2001                   :
  PAW_PBE N 08Apr2002                   :
  PAW_PBE O 08Apr2002                   :

 POSCAR: FeH_exp1
  positions in direct lattice
  velocities in cartesian coordinates
 exchange correlation table for  LEXCH =        8
   RHO(1)=    0.500       N(1)  =     2000
   RHO(2)=  100.500       N(2)  =     4000

 ion  position               nearest neighbor table
   1  0.879  0.966  0.101- 107 1.09 117 1.35  65 1.40
   2  0.933  0.981  0.429- 112 1.09 118 1.35  65 1.40
   3  0.876  0.817  0.900- 116 1.09 119 1.35  66 1.40
   4  0.621  0.466  0.609- 110 1.09 120 1.35  67 1.40
   5  0.571  0.301  0.081- 111 1.09 121 1.35  68 1.40
   6  0.067  0.800  0.074- 115 1.09 122 1.35  69 1.40
   7  0.566  0.481  0.936- 101 1.09 123 1.35  67 1.40
   8  0.625  0.317  0.406- 113 1.09 124 1.35  68 1.40
   9  0.430  0.479  0.437- 114 1.09 125 1.35  70 1.40
  10  0.121  0.814  0.401- 104 1.09 126 1.35  69 1.40
  11  0.070  0.979  0.930- 105 1.09 127 1.35  71 1.40
  12  0.434  0.300  0.581- 102 1.09 128 1.35  72 1.40
  13  0.930  0.802  0.573- 108 1.09 129 1.35  66 1.40
  14  0.124  0.964  0.603- 109 1.09 130 1.35  71 1.40
  15  0.379  0.314  0.909- 106 1.09 131 1.35  72 1.40
  16  0.376  0.464  0.111- 103 1.09 132 1.35  70 1.40
  17  0.801  0.039  0.452- 141 1.23 133 1.41  33 1.48
  18  0.857  0.076  0.063- 142 1.23 133 1.42  34 1.48
  19  0.851  0.708  0.943- 143 1.23 134 1.42  35 1.48
  20  0.643  0.576  0.569- 144 1.23 135 1.42  36 1.48
  21  0.650  0.207  0.447- 145 1.23 136 1.42  37 1.48
  22  0.199  0.741  0.052- 146 1.23 137 1.41  38 1.48
  23  0.698  0.540  0.958- 147 1.23 135 1.41  39 1.48
  24  0.705  0.244  0.057- 148 1.23 136 1.41  40 1.48
  25  0.296  0.537  0.458- 149 1.23 138 1.41  41 1.48
  26  0.143  0.705  0.441- 150 1.23 137 1.42  42 1.48
  27  0.149  0.074  0.564- 151 1.23 139 1.42  43 1.48
  28  0.356  0.205  0.946- 152 1.23 140 1.42  44 1.48
  29  0.796  0.744  0.553- 153 1.23 134 1.41  45 1.48
  30  0.204  0.037  0.953- 154 1.23 139 1.41  46 1.48
  31  0.301  0.241  0.558- 155 1.23 140 1.41  47 1.48
  32  0.351  0.573  0.068- 156 1.23 138 1.42  48 1.48
  33  0.762  0.083  0.445-  49 1.39  73 1.42  17 1.48
  34  0.818  0.119  0.068-  50 1.39  73 1.42  18 1.48
  35  0.812  0.665  0.941-  51 1.39  74 1.42  19 1.48
  36  0.681  0.619  0.572-  52 1.39  75 1.42  20 1.48
  37  0.688  0.164  0.442-  53 1.39  76 1.42  21 1.48
  38  0.238  0.698  0.061-  54 1.39  77 1.42  22 1.48
  39  0.737  0.583  0.949-  55 1.39  75 1.42  23 1.48
  40  0.744  0.201  0.065-  56 1.39  76 1.42  24 1.48
  41  0.257  0.580  0.448-  57 1.39  78 1.42  25 1.48
  42  0.182  0.662  0.439-  58 1.39  77 1.42  26 1.48
  43  0.188  0.116  0.568-  59 1.39  79 1.42  27 1.48
  44  0.318  0.162  0.942-  60 1.39  80 1.42  28 1.48
  45  0.756  0.701  0.564-  61 1.39  74 1.42  29 1.48
  46  0.243  0.080  0.946-  62 1.39  79 1.42  30 1.48
  47  0.262  0.198  0.565-  63 1.39  80 1.42  31 1.48
  48  0.313  0.616  0.070-  64 1.39  78 1.42  32 1.48
  49  0.716  0.085  0.626-  88 1.09  33 1.39  53 1.40
  50  0.827  0.158  0.886-  99 1.09  34 1.39  56 1.40
  51  0.821  0.626  0.125-  93 1.09  35 1.39  55 1.40
  52  0.672  0.658  0.389-  90 1.09  36 1.39  61 1.40
  53  0.679  0.126  0.624-  98 1.09  37 1.39  49 1.40
  54  0.285  0.695  0.882-  96 1.09  38 1.39  64 1.40
  55  0.784  0.586  0.129-  86 1.09  39 1.39  51 1.40
  56  0.790  0.199  0.884-  87 1.09  40 1.39  50 1.40
  57  0.210  0.583  0.627-  95 1.09  41 1.39  58 1.40
  58  0.173  0.623  0.622-  91 1.09  42 1.39  57 1.40
  59  0.179  0.155  0.386-  92 1.09  43 1.39  63 1.40
  60  0.327  0.123  0.124-  85 1.09  44 1.39  62 1.40
[...]
 142  0.895  0.072  0.899-  18 1.23
 143  0.890  0.712  0.106-  19 1.23
 144  0.604  0.572  0.406-  20 1.23
 145  0.611  0.211  0.611-  21 1.23
 146  0.205  0.775  0.889-  22 1.23
 147  0.705  0.506  0.120-  23 1.23
 148  0.711  0.278  0.895-  24 1.23
 149  0.290  0.503  0.622-  25 1.23
 150  0.104  0.709  0.604-  26 1.23
 151  0.110  0.070  0.400-  27 1.23
 152  0.395  0.209  0.110-  28 1.23
 153  0.790  0.778  0.390-  29 1.23
 154  0.210  0.003  0.115-  30 1.23
 155  0.295  0.276  0.396-  31 1.23
 156  0.391  0.569  0.905-  32 1.23

IMPORTANT INFORMATION: All symmetrisations will be switched off!
NOSYMM: (Re-)initialisation of all symmetry stuff for point group C_1.

Automatic generation of k-mesh.
 generate k-points for:    2    1    4
Space group operators:
 irot       det(A)        alpha          n_x          n_y          n_z        tau_x        tau_y        tau_z
    1     1.000000     0.000001     1.000000     0.000000     0.000000     0.000000     0.000000     0.000000

 Subroutine IBZKPT returns following result:

 Found      6 irreducible k-points:

 Following reciprocal coordinates:
            Coordinates               Weight
  0.000000  0.000000  0.000000      1.000000
  0.500000  0.000000 -0.000000      1.000000
 -0.000000  0.000000  0.250000      2.000000
  0.500000  0.000000  0.250000      2.000000
 -0.000000  0.000000  0.500000      1.000000
  0.500000  0.000000  0.500000      1.000000

 Following cartesian coordinates:
            Coordinates               Weight
  0.000000  0.000000  0.000000      1.000000
  0.024592 -0.000000 -0.000001      1.000000
 -0.000006 -0.003992  0.045246      2.000000
  0.024587 -0.003993  0.045245      2.000000
 -0.000011 -0.007985  0.090491      1.000000
  0.024581 -0.007985  0.090490      1.000000

 SYSTEM =  flex_MOF
 POSCAR =  FeH_exp1

 Startparameter for this run:
   NWRITE =      2    write-flag & timer
   PREC   = normal    normal or accurate (medium, high low for compatibility)
   ISTART =      0    job   : 0-new  1-cont  2-samecut
   ICHARG =      2    charge: 1-file 2-atom 10-const
   ISPIN  =      2    spin polarized calculation?
   LNONCOLLINEAR =      F non collinear calculations
   LSORBIT =      F    spin-orbit coupling
   INIWAV =      1    electr: 0-lowe 1-rand  2-diag
   LASPH  =      F    aspherical Exc in radial PAW
   METAGGA=      F    non-selfconsistent MetaGGA calc.

 Electronic Relaxation 1
   ENCUT  =  600.0 eV  44.10 Ry    6.64 a.u.  40.61 58.15 11.16*2*pi/ulx,y,z
   ENINI  =  600.0     initial cutoff
   ENAUG  =  644.9 eV  augmentation charge cutoff
   NELM   =     80;   NELMIN=  3; NELMDL= -8     # of ELM steps
   EDIFF  = 0.1E-05   stopping-criterion for ELM
   LREAL  =      T    real-space projection
   NLSPLINE    = F    spline interpolate recip. space projectors
   LCOMPAT=      F    compatible to vasp.4.4
   GGA_COMPAT  = T    GGA compatible to vasp.4.4-vasp.4.6
   LMAXPAW     = -100 max onsite density
   LMAXMIX     =    2 max onsite mixed and CHGCAR
   VOSKOWN=      0    Vosko Wilk Nusair interpolation
   ROPT   =   -0.00050  -0.00050  -0.00050  -0.00050
   ROPT   =   -0.00050
 Ionic relaxation
   EDIFFG = -.1E-01   stopping-criterion for IOM
   NSW    =   1000    number of steps for IOM
   NBLOCK =      1;   KBLOCK =   1000    inner block; outer block
   IBRION =      2    ionic relax: 0-MD 1-quasi-New 2-CG
   NFREE  =      1    steps in history (QN), initial steepest desc. (CG)
   ISIF   =      4    stress and relaxation
   IWAVPR =     11    prediction:  0-non 1-charg 2-wave 3-comb
   ISYM   =      0    0-nonsym 1-usesym 2-fastsym
   LCORR  =      T    Harris-Foulkes like correction to forces

   POTIM  = 0.5000    time-step for ionic-motion
   TEIN   =    0.0    initial temperature
   TEBEG  =    0.0;   TEEND  =   0.0 temperature during run
   SMASS  =  -3.00    Nose mass-parameter (am)
   estimated Nose-frequenzy (Omega)   =  0.10E-29 period in steps =****** mass=  -0.945E-26a.u.
   SCALEE = 1.0000    scale energy and forces
   NPACO  =    256;   APACO  = 16.0  distance and # of slots for P.C.
   PSTRESS=    0.0 pullay stress

  Mass of Ions in am
   POMASS =  12.01 55.85  1.00 14.00 16.00
  Ionic Valenz
   ZVAL   =   4.00  8.00  1.00  5.00  6.00
  Atomic Wigner-Seitz radii
  virtual crystal weights
   VCA    =   1.00  1.00  1.00  1.00  1.00
   NELECT =     600.0000    total number of electrons
   NUPDOWN=      -1.0000    fix difference up-down

 DOS related values:
   EMIN   =  10.00;   EMAX   =-10.00  energy-range for DOS
   EFERMI =   0.00
   ISMEAR =     0;   SIGMA  =   0.05  broadening in eV -4-tet -1-fermi 0-gaus

 Electronic relaxation 2 (details)
   IALGO  =     38    algorithm
   LDIAG  =      T    sub-space diagonalisation (order eigenvalues)
   LSUBROT=      F    optimize rotation matrix (better conditioning)
[...]
   0.207E+03 -.814E+01 0.950E+01   -.210E+03 0.118E+02 -.896E+01   0.268E+01 -.367E+01 -.547E+00   0.674E-04 -.130E-03 -.368E-05
   -.372E+02 0.147E+03 0.114E+02   0.392E+02 -.151E+03 -.114E+02   -.207E+01 0.402E+01 0.961E-02   -.761E-04 0.108E-03 -.191E-04
   -.432E+02 -.142E+03 -.119E+02   0.453E+02 0.146E+03 0.120E+02   -.209E+01 -.402E+01 -.428E-01   -.344E-04 -.401E-04 0.137E-04
   0.369E+02 0.146E+03 0.118E+02   -.389E+02 -.150E+03 -.119E+02   0.207E+01 0.403E+01 0.441E-01   0.341E-04 0.403E-04 -.106E-04
   0.207E+03 0.778E+01 -.939E+01   -.210E+03 -.114E+02 0.886E+01   0.268E+01 0.367E+01 0.547E+00   0.379E-04 0.919E-04 -.746E-06
   -.207E+03 -.787E+01 0.900E+01   0.210E+03 0.115E+02 -.842E+01   -.266E+01 -.369E+01 -.594E+00   -.375E-04 -.290E-04 -.849E-05
   0.203E+03 0.134E+02 -.886E+01   -.205E+03 -.171E+02 0.828E+01   0.264E+01 0.371E+01 0.601E+00   0.435E-04 0.369E-04 0.592E-05
   0.447E+02 -.143E+03 -.114E+02   -.468E+02 0.147E+03 0.115E+02   0.211E+01 -.400E+01 0.379E-02   0.767E-04 -.107E-03 0.199E-04
   0.145E+03 0.662E+02 -.190E+02   -.146E+03 -.662E+02 0.197E+02   0.495E+00 -.123E-01 -.704E+00   -.618E-06 -.168E-04 -.114E-05
   -.598E+02 -.969E+02 0.216E+02   0.600E+02 0.974E+02 -.222E+02   -.210E+00 -.563E+00 0.630E+00   0.952E-05 -.979E-05 0.251E-05
   -.544E+02 0.933E+02 -.217E+02   0.546E+02 -.938E+02 0.223E+02   -.211E+00 0.557E+00 -.633E+00   0.179E-04 0.171E-04 -.859E-05
   0.602E+02 -.980E+02 0.215E+02   -.604E+02 0.986E+02 -.221E+02   0.219E+00 -.560E+00 0.629E+00   -.198E-04 -.177E-04 0.936E-05
   0.555E+02 0.931E+02 -.214E+02   -.557E+02 -.936E+02 0.220E+02   0.207E+00 0.568E+00 -.631E+00   -.157E-04 0.547E-05 -.148E-05
   -.143E+03 -.660E+02 0.194E+02   0.144E+03 0.660E+02 -.201E+02   -.497E+00 0.136E-01 0.701E+00   0.524E-05 0.609E-04 0.221E-05
   -.144E+03 0.653E+02 -.195E+02   0.144E+03 -.653E+02 0.202E+02   -.496E+00 -.163E-01 -.704E+00   -.591E-05 -.458E-04 -.384E-05
   -.149E+03 -.714E+02 0.192E+02   0.149E+03 0.714E+02 -.198E+02   -.497E+00 -.309E-02 0.700E+00   -.117E-04 0.126E-04 0.339E-05
   0.149E+03 0.708E+02 -.194E+02   -.149E+03 -.708E+02 0.201E+02   0.496E+00 0.149E-02 -.698E+00   0.406E-05 -.556E-04 -.509E-05
   0.605E+02 0.974E+02 -.215E+02   -.608E+02 -.980E+02 0.221E+02   0.219E+00 0.559E+00 -.627E+00   -.413E-04 0.187E-04 -.119E-04
   0.552E+02 -.935E+02 0.214E+02   -.554E+02 0.941E+02 -.220E+02   0.208E+00 -.565E+00 0.627E+00   -.199E-04 -.919E-05 0.659E-05
   -.604E+02 0.969E+02 -.216E+02   0.606E+02 -.974E+02 0.222E+02   -.213E+00 0.563E+00 -.628E+00   0.208E-04 0.429E-05 -.596E-05
   0.148E+03 -.714E+02 0.193E+02   -.149E+03 0.714E+02 -.200E+02   0.502E+00 -.258E-02 0.696E+00   -.153E-05 0.459E-04 0.149E-05
   -.149E+03 0.708E+02 -.191E+02   0.149E+03 -.708E+02 0.198E+02   -.497E+00 0.204E-03 -.701E+00   -.132E-05 -.152E-04 -.390E-05
   0.145E+03 -.665E+02 0.190E+02   -.145E+03 0.665E+02 -.197E+02   0.497E+00 0.145E-01 0.705E+00   0.697E-05 0.114E-04 0.504E-05
   -.538E+02 -.937E+02 0.215E+02   0.540E+02 0.943E+02 -.221E+02   -.212E+00 -.556E+00 0.631E+00   0.436E-04 -.147E-04 0.123E-04
   0.230E+03 0.187E+03 -.945E+02   -.231E+03 -.189E+03 0.961E+02   0.539E+00 0.146E+01 -.166E+01   -.186E-04 -.290E-04 0.105E-04
   -.210E+03 -.169E+03 0.999E+02   0.212E+03 0.169E+03 -.102E+03   -.144E+01 -.451E-01 0.181E+01   0.171E-04 -.483E-05 -.527E-05
   -.206E+03 0.166E+03 -.100E+03   0.207E+03 -.166E+03 0.102E+03   -.145E+01 0.363E-01 -.181E+01   0.476E-04 -.695E-05 0.215E-04
   0.210E+03 -.170E+03 0.999E+02   -.212E+03 0.170E+03 -.102E+03   0.145E+01 -.386E-01 0.180E+01   -.508E-04 0.224E-04 -.206E-04
   0.207E+03 0.166E+03 -.999E+02   -.209E+03 -.166E+03 0.102E+03   0.144E+01 0.433E-01 -.182E+01   -.222E-04 -.151E-04 0.552E-05
   -.228E+03 -.187E+03 0.950E+02   0.229E+03 0.189E+03 -.967E+02   -.544E+00 -.144E+01 0.168E+01   0.535E-04 0.109E-03 -.353E-04
   -.229E+03 0.187E+03 -.951E+02   0.229E+03 -.188E+03 0.967E+02   -.545E+00 0.145E+01 -.167E+01   0.206E-04 -.628E-04 0.226E-04
   -.233E+03 -.192E+03 0.946E+02   0.233E+03 0.193E+03 -.963E+02   -.534E+00 -.145E+01 0.166E+01   0.613E-05 0.849E-05 -.718E-05
   0.233E+03 0.191E+03 -.951E+02   -.233E+03 -.193E+03 0.968E+02   0.537E+00 0.144E+01 -.168E+01   -.434E-04 -.887E-04 0.323E-04
   0.211E+03 0.169E+03 -.999E+02   -.212E+03 -.169E+03 0.102E+03   0.145E+01 0.359E-01 -.180E+01   -.904E-04 -.155E-04 0.317E-04
   0.206E+03 -.166E+03 0.999E+02   -.208E+03 0.166E+03 -.102E+03   0.143E+01 -.453E-01 0.182E+01   -.323E-04 0.380E-07 -.770E-05
   -.211E+03 0.169E+03 -.999E+02   0.212E+03 -.169E+03 0.102E+03   -.144E+01 0.478E-01 -.181E+01   0.353E-04 -.163E-04 0.777E-05
[...]
   -.208E+03 0.219E+03 -.219E+03   0.243E+03 -.211E+03 0.259E+03   -.352E+02 -.864E+01 -.405E+02   0.716E-04 0.133E-03 0.216E-04
   0.217E+03 -.223E+03 0.220E+03   -.252E+03 0.214E+03 -.260E+03   0.351E+02 0.874E+01 0.406E+02   -.570E-04 -.126E-03 -.689E-05
   0.207E+03 0.218E+03 -.220E+03   -.242E+03 -.209E+03 0.261E+03   0.348E+02 -.856E+01 -.408E+02   -.127E-04 0.592E-04 -.263E-04
   -.444E+03 -.296E+03 0.178E+03   0.451E+03 0.335E+03 -.214E+03   -.613E+01 -.397E+02 0.356E+02   -.641E-04 0.212E-03 -.455E-04
   -.446E+03 0.295E+03 -.178E+03   0.453E+03 -.335E+03 0.213E+03   -.627E+01 0.398E+02 -.354E+02   -.709E-04 -.162E-03 0.235E-04
   -.448E+03 -.308E+03 0.178E+03   0.454E+03 0.348E+03 -.214E+03   -.583E+01 -.400E+02 0.354E+02   -.798E-04 0.251E-04 0.121E-04
   0.446E+03 0.304E+03 -.180E+03   -.452E+03 -.344E+03 0.216E+03   0.566E+01 0.395E+02 -.359E+02   0.905E-04 -.220E-03 0.374E-04
   0.218E+03 0.223E+03 -.219E+03   -.253E+03 -.214E+03 0.260E+03   0.352E+02 -.878E+01 -.405E+02   -.155E-03 0.153E-03 0.267E-04
   0.207E+03 -.219E+03 0.220E+03   -.242E+03 0.210E+03 -.261E+03   0.348E+02 0.853E+01 0.408E+02   -.499E-04 -.656E-04 0.150E-04
   -.217E+03 0.223E+03 -.221E+03   0.252E+03 -.214E+03 0.261E+03   -.349E+02 -.855E+01 -.408E+02   0.447E-04 0.601E-04 -.184E-04
   0.446E+03 -.305E+03 0.180E+03   -.451E+03 0.345E+03 -.216E+03   0.564E+01 -.396E+02 0.359E+02   0.562E-04 0.161E-03 -.367E-04
   -.448E+03 0.307E+03 -.178E+03   0.454E+03 -.347E+03 0.214E+03   -.581E+01 0.399E+02 -.355E+02   -.613E-04 -.195E-04 -.420E-05
   0.446E+03 -.298E+03 0.177E+03   -.452E+03 0.338E+03 -.212E+03   0.613E+01 -.400E+02 0.352E+02   0.820E-04 0.372E-04 0.681E-05
   -.206E+03 -.219E+03 0.219E+03   0.241E+03 0.210E+03 -.259E+03   -.351E+02 0.873E+01 0.406E+02   0.152E-03 -.148E-03 -.174E-04
   0.653E+00 -.283E+00 -.178E+00   -.284E-12 -.162E-11 0.568E-13   -.662E+00 0.235E+00 0.196E+00   -.101E-03 -.283E-04 0.140E-04

 POSITION                                       TOTAL-FORCE (eV/Angst)
     17.87469     28.07579      3.03917        -0.000088     -0.001133     -0.001484
     18.97992     28.65098      4.89896        -0.000439      0.000268      0.000491
     17.81027     24.13260      7.10317        -0.001072      0.001066      0.002089
     12.62157     13.82186      4.58385        -0.000069     -0.001104     -0.002986
     11.60246      8.77975      1.22190        -0.001571     -0.002855     -0.005758
      1.35463     23.23783      2.45735        -0.000262     -0.002705     -0.003275
     11.51445     14.39377      6.44339        -0.000556      0.001699      0.003750
     12.70037      9.38649      3.07575         0.000769      0.000428      0.005274
      8.74350     14.10606      3.66106         0.001134      0.002467      0.006378
      2.45882     23.80993      4.31851         0.000279      0.001861      0.003118
      1.43066     28.84980      7.68524         0.001486      0.001210     -0.000728
      8.81717      8.97689      4.00615         0.000430     -0.002845     -0.003580
     18.90201     23.52366      5.24619        -0.001019     -0.001276     -0.002728
      2.52257     28.25156      5.82512        -0.000306     -0.001944     -0.001688
      7.70938      9.55337      5.86380        -0.003020      0.001700      0.005870
      7.64690     13.49782      1.80677        -0.002866     -0.002905     -0.006805
     16.28641      1.36277      2.62069        -0.003234      0.001008      0.000960
     17.41452      2.24146      0.54987        -0.007312      0.002900      0.004794
     17.30344     20.97905      7.06331         0.000127     -0.002725      0.002811
     13.06493     16.99123      4.64620        -0.001179      0.001356     -0.006354
     13.20618      6.22864      3.01992         0.002166     -0.003220     -0.001909
      4.04316     21.50938      2.18479         0.004963      0.002425     -0.002162
     14.20043     16.12287      6.71738         0.002425      0.003492     -0.002625
     14.32761      7.10682      0.94453         0.000557     -0.003563      0.000855
      6.02157     15.79066      3.92644        -0.002352      0.001136      0.001220
      2.90929     20.64506      4.25830        -0.002437     -0.002070      0.005698
      3.02897      2.40539      3.32740         0.001868      0.004255     -0.000456
      7.24522      6.38715      5.79379        -0.006882     -0.005112     -0.003771
     16.17710     21.84461      4.98532        -0.004219     -0.000588     -0.001781
      4.14855      1.52731      5.40348         0.003552     -0.001426      0.004279
      6.11878      7.26631      3.72236        -0.003370     -0.000353     -0.000183
      7.14644     16.65291      1.84652         0.000960      0.001000     -0.003911
     15.49689      2.60991      2.69245         0.001975      0.000815     -0.002631
     16.63332      3.49073      0.68675         0.000393      0.000505      0.001885
     16.51076     19.73586      6.94351        -0.002149      0.000882     -0.003512
     13.84877     18.24002      4.77225         0.001331      0.000859      0.001160
     13.99012      4.98170      2.88410         0.002633      0.000154     -0.002596
      4.83692     20.26388      2.12735         0.001617      0.001120     -0.002839
     14.99143     17.36982      6.77892        -0.001485     -0.002172      0.000858
     15.12441      5.86318      0.87674        -0.001951      0.001361      0.001346
      5.21771     17.03092      3.97750        -0.000707     -0.001594      0.000053
      3.69448     19.39688      4.13549         0.002092     -0.001387      0.001626
      3.81469      3.65157      3.46245         0.002296      0.000829      0.001129
      6.46180      5.13909      5.65814        -0.001912     -0.000789     -0.000394
     15.37160     20.60573      4.93421         0.002939      0.001364      0.001569
      4.94698      2.76997      5.47058        -0.004909     -0.000368     -0.003956
      5.32671      6.02055      3.65196         0.003073      0.002742      0.003336
      6.35602     17.89754      1.96652        -0.001288      0.001328      0.000747
     14.55371      2.77006      3.70521        -0.002023     -0.002630      0.004386
     16.82035      5.00386      5.33905        -0.000007      0.002718     -0.004010
     16.69539     18.23069      2.30022         0.000739     -0.003617      0.005110
     13.66225     19.26630      3.84951         0.000537      0.000804     -0.002985
     13.80404      3.94971      3.80047        -0.002852     -0.000491      0.003369
      5.78615     20.57860      6.68858        -0.001279      0.002046      0.000854
     15.93974     17.05364      2.21827        -0.000119      0.000320     -0.000908
     16.06953      6.18339      5.43311         0.001589      0.000489     -0.001996
      4.26602     17.19596      4.98183         0.001721      0.000386     -0.000782
      3.50814     18.37217      5.06000         0.000125     -0.001080      0.001549
      3.63132      4.68273      2.54468        -0.001141      0.001612     -0.002977
      6.64619      3.62613      1.00654         0.000105     -0.001205      0.004344
[...]
     18.20325      2.52469      5.19480         0.003376     -0.001032     -0.004637
     18.09907     20.69676      2.41190        -0.005454      0.000548      0.000555
     12.27124     16.79078      3.72829         0.005550      0.000943      0.002554
     12.41887      6.42518      3.94404        -0.000532     -0.000159      0.006425
      4.17440     22.89991      6.93468         0.002456      0.000290      0.003442
     14.33428     14.72951      1.96376         0.001171     -0.003295      0.001499
     14.45217      8.50309      5.69997         0.002124      0.003084     -0.001103
      5.90050     14.88480      4.75037        -0.003326     -0.001857     -0.001696
      2.11438     20.84624      5.17489         0.006175     -0.001010     -0.000916
      2.24094      2.20953      2.40377         0.000951      0.000372     -0.004117
      8.03363      6.10294      1.14890         0.002643      0.000740      0.007530
     16.05666     22.75145      4.16234        -0.003256      0.001452      0.002132
      4.27180      0.13213      0.64952         0.000581      0.001406     -0.002883
      5.98803      8.18394      2.91293        -0.003522      0.003523      0.004518
      7.94040     16.93313      6.49644        -0.003534      0.000164      0.000601
    total drift:                               -0.009223     -0.048344      0.017170

  FREE ENERGIE OF THE ION-ELECTRON SYSTEM (eV)
  free  energy   TOTEN  =     -1186.03427767 eV

  energy  without entropy=    -1186.00764736  energy(sigma->0) =    -1186.02096252

 reached required accuracy - stopping structural energy minimisation
 writing wavefunctions

 total charge

[...]

 magnetization (x)

# of ion       s       p       d       tot
    1        0.003   0.019   0.000   0.022
    2        0.003   0.019   0.000   0.022
    3        0.003   0.019   0.000   0.022
    4       -0.003  -0.019   0.000  -0.022
    5       -0.003  -0.019   0.000  -0.021
    6        0.003   0.019   0.000   0.022
    7       -0.003  -0.019   0.000  -0.022
    8       -0.003  -0.019   0.000  -0.022
    9       -0.003  -0.019   0.000  -0.021
   10        0.003   0.019   0.000   0.022
   11        0.003   0.019   0.000   0.022
   12       -0.003  -0.019   0.000  -0.022
   13        0.003   0.019   0.000   0.022
   14        0.003   0.019   0.000   0.022
   15       -0.003  -0.019   0.000  -0.022
   16       -0.003  -0.019   0.000  -0.022
   17        0.000   0.001   0.000   0.001
   18        0.000   0.001   0.000   0.001
   19        0.000   0.001   0.000   0.001
   20       -0.000  -0.001   0.000  -0.001
   21       -0.000  -0.001   0.000  -0.001
   22        0.000   0.001   0.000   0.001
   23       -0.000  -0.001   0.000  -0.001
   24       -0.000  -0.001   0.000  -0.001
   25       -0.000  -0.001   0.000  -0.001
   26        0.000   0.001   0.000   0.001
   27        0.000   0.001   0.000   0.001
   28       -0.000  -0.001   0.000  -0.001
   29        0.000   0.001   0.000   0.001
   30        0.000   0.001   0.000   0.001
   31       -0.000  -0.001   0.000  -0.001
   32       -0.000  -0.001   0.000  -0.001
   33       -0.000  -0.000   0.000  -0.000
   34        0.000  -0.000   0.000  -0.000
   35        0.000  -0.000   0.000  -0.000
   36       -0.000   0.000   0.000   0.000
   37       -0.000   0.000   0.000   0.000
   38       -0.000  -0.000   0.000  -0.000
   39        0.000   0.000   0.000   0.000
   40        0.000   0.000   0.000   0.000
   41        0.000   0.000   0.000   0.000
   42        0.000  -0.000   0.000  -0.000
   43        0.000  -0.000   0.000  -0.000
   44       -0.000   0.000   0.000   0.000
   45       -0.000  -0.000   0.000  -0.000
   46       -0.000  -0.000   0.000  -0.000
   47        0.000   0.000   0.000   0.000
   48       -0.000   0.000   0.000   0.000
   49        0.000   0.000   0.000   0.000
   50        0.000   0.000   0.000   0.000
   51        0.000   0.000   0.000   0.000
   52       -0.000  -0.000   0.000  -0.000
   53       -0.000  -0.000   0.000  -0.000
   54        0.000   0.000   0.000   0.000
   55       -0.000  -0.000   0.000  -0.000
   56       -0.000  -0.000   0.000  -0.000
   57       -0.000  -0.000   0.000  -0.000
   58        0.000   0.000   0.000   0.000
   59        0.000   0.000   0.000   0.000
   60       -0.000  -0.000   0.000  -0.000
[...]
  142        0.000   0.001   0.000   0.001
  143        0.000   0.001   0.000   0.001
  144       -0.000  -0.001   0.000  -0.001
  145       -0.000  -0.001   0.000  -0.001
  146        0.000   0.001   0.000   0.001
  147       -0.000  -0.001   0.000  -0.001
  148       -0.000  -0.001   0.000  -0.001
  149       -0.000  -0.001   0.000  -0.001
  150        0.000   0.001   0.000   0.001
  151        0.000   0.001   0.000   0.001
  152       -0.000  -0.001   0.000  -0.001
  153        0.000   0.001   0.000   0.001
  154        0.000   0.001   0.000   0.001
  155       -0.000  -0.001   0.000  -0.001
  156       -0.000  -0.001   0.000  -0.001
tot          0.000   0.000  -0.000  -0.000