 vasp.6.0.8 29Jun18 (build Mar 14 2019 11:44:20) complex

 executed on             LinuxIFC date 2020.12.27  17:33:33

 INCAR:
 POTCAR:    PAW_PBE C 08Apr2002
 POTCAR:    PAW_PBE Fe 06Sep2000
 POTCAR:    PAW_PBE H 15Jun2001
 POTCAR:    PAW_PBE N 08Apr2002
 POTCAR:    PAW_PBE O 08Apr2002
 POTCAR:    PAW_PBE C 08Apr2002
   VRHFIN =C: s2p2

   TITEL  = PAW_PBE C 08Apr2002
   POMASS =   12.011; ZVAL   =    4.000    mass and valenz
   ENMAX  =  400.000; ENMIN  =  300.000 eV

 POTCAR:    PAW_PBE Fe 06Sep2000
   VRHFIN =Fe:  d7 s1

   TITEL  = PAW_PBE Fe 06Sep2000
   POMASS =   55.847; ZVAL   =    8.000    mass and valenz
   ENMAX  =  267.882; ENMIN  =  200.911 eV

 POTCAR:    PAW_PBE H 15Jun2001
   VRHFIN =H: ultrasoft test

   TITEL  = PAW_PBE H 15Jun2001
   POMASS =    1.000; ZVAL   =    1.000    mass and valenz
   ENMAX  =  250.000; ENMIN  =  200.000 eV

 POTCAR:    PAW_PBE N 08Apr2002
   VRHFIN =N: s2p3

[...]

 POTCAR:    PAW_PBE O 08Apr2002
   VRHFIN =O: s2p4

   TITEL  = PAW_PBE O 08Apr2002
   POMASS =   16.000; ZVAL   =    6.000    mass and valenz
   ENMAX  =  400.000; ENMIN  =  300.000 eV

 Optimization of the real space projectors (new method)

 maximal supplied QI-value         = 25.13
 optimisation between [QCUT,QGAM] = [ 12.32, 24.88] = [ 42.47,173.37] Ry
 Optimized for a Real-space Cutoff    1.06 Angstroem

   l    n(q)    QCUT    max X(q) W(low)/X(q) W(high)/X(q)  e(spline)
   0      8    12.315   115.676    0.34E-03    0.18E-03    0.23E-06
   0      8    12.315    87.132    0.34E-03    0.18E-03    0.22E-06
   1      7    12.315     4.429    0.45E-03    0.12E-03    0.18E-06
   1      7    12.315     2.733    0.35E-03    0.97E-04    0.15E-06
 Optimization of the real space projectors (new method)

[...]

   l    n(q)    QCUT    max X(q) W(low)/X(q) W(high)/X(q)  e(spline)
   0      9    12.315    79.467    0.14E-03    0.22E-04    0.37E-06
   0      9    12.315    66.151    0.14E-03    0.23E-04    0.36E-06
   1      8    12.315    22.077    0.30E-03    0.54E-03    0.45E-06
   1      8    12.315    15.894    0.30E-03    0.55E-03    0.45E-06
 Optimization of the real space projectors (new method)

 maximal supplied QI-value         = 24.76
 optimisation between [QCUT,QGAM] = [ 12.38, 25.00] = [ 42.90,175.06] Ry
 Optimized for a Real-space Cutoff    1.13 Angstroem

   l    n(q)    QCUT    max X(q) W(low)/X(q) W(high)/X(q)  e(spline)
   0      8    12.378    20.381    0.16E-03    0.54E-05    0.27E-06
   0      8    12.378    15.268    0.17E-03    0.61E-05    0.29E-06
   1      8    12.378     5.964    0.38E-03    0.23E-03    0.28E-06
   1      8    12.378     5.382    0.33E-03    0.20E-03    0.25E-06
  PAW_PBE C 08Apr2002                   :
  PAW_PBE Fe 06Sep2000                  :
  PAW_PBE H 15Jun2001                   :
  PAW_PBE N 08Apr2002                   :
  PAW_PBE O 08Apr2002                   :

 POSCAR: FeH_8
  positions in direct lattice
  velocities in cartesian coordinates
 exchange correlation table for  LEXCH =        8
   RHO(1)=    0.500       N(1)  =     2000
   RHO(2)=  100.500       N(2)  =     4000

 ion  position               nearest neighbor table
   1  0.740  0.951  0.997- 107 1.09 117 1.36  65 1.40
   2  0.888  0.953  0.313- 112 1.08 118 1.34  65 1.39
   3  0.726  0.799  0.838- 116 1.09 119 1.36  66 1.40
   4  0.759  0.451  0.498- 110 1.09 120 1.36  67 1.40
   5  0.625  0.296  0.024- 111 1.08 121 1.34  68 1.39
   6  0.112  0.794  0.030- 115 1.08 122 1.34  69 1.39
   7  0.611  0.453  0.812- 101 1.08 123 1.34  67 1.39
   8  0.773  0.299  0.339- 113 1.09 124 1.36  68 1.40
   9  0.373  0.452  0.314- 114 1.08 125 1.34  70 1.39
  10  0.261  0.797  0.346- 104 1.09 126 1.36  69 1.40
  11  0.125  0.952  0.817- 105 1.08 127 1.34  71 1.39
  12  0.387  0.294  0.527- 102 1.08 128 1.34  72 1.39
  13  0.875  0.796  0.525- 108 1.08 129 1.34  66 1.39
  14  0.274  0.948  0.504- 109 1.09 130 1.36  71 1.40
  15  0.239  0.297  0.842- 106 1.08 131 1.36  72 1.40
  16  0.226  0.449  1.000- 103 1.09 132 1.36  70 1.40
  17  0.693  0.029  0.334- 141 1.23 133 1.41  33 1.47
  18  0.846  0.048  0.958- 142 1.23 133 1.41  34 1.47
  19  0.823  0.702  0.879- 143 1.23 134 1.41  35 1.47
  20  0.653  0.548  0.457- 144 1.23 135 1.41  36 1.47
  21  0.677  0.202  0.379- 145 1.23 136 1.41  37 1.47
  22  0.307  0.718  0.008- 146 1.23 137 1.41  38 1.47
  23  0.805  0.529  0.835- 147 1.23 135 1.41  39 1.47
  24  0.829  0.221  0.003- 148 1.23 136 1.41  40 1.47
  25  0.170  0.527  0.336- 149 1.23 138 1.41  41 1.47
  26  0.154  0.700  0.384- 150 1.23 137 1.41  42 1.47
  27  0.177  0.046  0.463- 151 1.23 139 1.41  43 1.47
  28  0.346  0.200  0.883- 152 1.23 140 1.41  44 1.47
  29  0.671  0.721  0.501- 153 1.23 134 1.41  45 1.47
  30  0.328  0.027  0.840- 154 1.23 139 1.41  46 1.47
  31  0.194  0.218  0.506- 155 1.23 140 1.41  47 1.47
  32  0.323  0.546  0.960- 156 1.23 138 1.41  48 1.47
  33  0.698  0.073  0.346-  49 1.38  73 1.41  17 1.47
  34  0.837  0.092  0.970-  50 1.39  73 1.41  18 1.47
  35  0.813  0.658  0.867-  51 1.39  74 1.41  19 1.47
  36  0.662  0.592  0.469-  52 1.39  75 1.41  20 1.47
  37  0.687  0.158  0.367-  53 1.39  76 1.41  21 1.47
  38  0.301  0.674  0.995-  54 1.38  77 1.41  22 1.47
  39  0.800  0.573  0.847-  55 1.38  75 1.41  23 1.47
  40  0.825  0.177  0.991-  56 1.38  76 1.41  24 1.47
  41  0.174  0.571  0.349-  57 1.38  78 1.41  25 1.47
  42  0.163  0.656  0.371-  58 1.39  77 1.41  26 1.47
  43  0.186  0.090  0.474-  59 1.39  79 1.41  27 1.47
  44  0.337  0.156  0.872-  60 1.39  80 1.41  28 1.47
  45  0.675  0.677  0.489-  61 1.38  74 1.41  29 1.47
  46  0.325  0.071  0.852-  62 1.38  79 1.41  30 1.47
  47  0.199  0.174  0.494-  63 1.38  80 1.41  31 1.47
  48  0.313  0.590  0.973-  64 1.39  78 1.41  32 1.47
  49  0.628  0.086  0.535-  88 1.08  33 1.38  53 1.39
  50  0.902  0.122  0.793-  99 1.08  34 1.39  56 1.40
  51  0.877  0.627  0.046-  93 1.08  35 1.39  55 1.40
  52  0.598  0.623  0.291-  90 1.08  36 1.39  61 1.40
  53  0.622  0.127  0.545-  98 1.08  37 1.39  49 1.39
  54  0.371  0.662  0.806-  96 1.08  38 1.38  64 1.39
  55  0.870  0.585  0.036-  86 1.08  39 1.38  51 1.40
  56  0.895  0.164  0.802-  87 1.08  40 1.38  50 1.40
  57  0.104  0.583  0.538-  95 1.08  41 1.38  58 1.40
  58  0.097  0.625  0.548-  91 1.08  42 1.39  57 1.40
  59  0.122  0.120  0.296-  92 1.08  43 1.39  63 1.40
  60  0.401  0.125  0.050-  85 1.08  44 1.39  62 1.40
[...]
 142  0.921  0.036  0.805-  18 1.23
 143  0.898  0.714  0.033-  19 1.23
 144  0.579  0.536  0.303-  20 1.23
 145  0.601  0.214  0.532-  21 1.23
 146  0.370  0.746  0.856-  22 1.23
 147  0.868  0.502  0.988-  23 1.23
 148  0.890  0.248  0.850-  24 1.23
 149  0.109  0.500  0.489-  25 1.23
 150  0.078  0.712  0.537-  26 1.23
 151  0.101  0.034  0.308-  27 1.23
 152  0.420  0.212  0.037-  28 1.23
 153  0.610  0.748  0.347-  29 1.23
 154  0.389  1.000  0.995-  30 1.23
 155  0.131  0.246  0.352-  31 1.23
 156  0.398  0.534  0.807-  32 1.23

IMPORTANT INFORMATION: All symmetrisations will be switched off!
NOSYMM: (Re-)initialisation of all symmetry stuff for point group C_1.

                                     Primitive cell

  volume of cell :    1538.3098

  direct lattice vectors                    reciprocal lattice vectors
     8.116071960  0.004835642 -0.013793715     0.123212683 -0.000084698  0.000188145
     0.017663838 32.756125685  3.178225480    -0.000024923  0.030900453 -0.003831910
    -0.008444106  0.726290267  5.856846341     0.000303708 -0.016768371  0.172820185

  length of vectors
     8.116085122 32.909955927  5.901713134     0.123212856  0.031137150  0.173632045

  position of ions in fractional coordinates (direct lattice)
     0.739534237  0.950821386  0.997105615
     0.887912902  0.953487143  0.312997280
     0.726264837  0.799493304  0.837958237
     0.759365939  0.450710978  0.497644765
     0.625059990  0.295543310  0.024491594
     0.112001210  0.794299098  0.029891706
     0.610749318  0.453491699  0.811941685
     0.772999383  0.299465157  0.338862955
     0.373422168  0.452373866  0.314349733
     0.260534440  0.796957851  0.345681497
     0.125413058  0.952217522  0.817290864
     0.387299574  0.294349141  0.527485978
     0.874544544  0.795503310  0.525156965
     0.273545698  0.948212567  0.504357045
     0.238998012  0.297119598  0.842126280
     0.225554133  0.448542314  0.999735069
     0.692987147  0.029476823  0.333883541
     0.845543553  0.047947711  0.958137196
     0.822787930  0.701876281  0.878992715
     0.653306718  0.547943467  0.457316190
     0.676680083  0.201929795  0.379017131
     0.306908729  0.718416490  0.008402920
     0.805206963  0.529345917  0.834940046
     0.828723749  0.220588131  0.003026196
     0.170159223  0.527313773  0.336078658
     0.153744940  0.699809726  0.383597943
     0.176680869  0.045821898  0.462620938
     0.345566884  0.199910987  0.883043450
     0.671316212  0.720667803  0.501241926
     0.328264815  0.027119891  0.840475119
     0.193517396  0.218390294  0.505594438
     0.322507994  0.546118470  0.960334493
     0.698117858  0.073474123  0.346360252
     0.836689821  0.091955719  0.969873632
     0.812811396  0.657867324  0.867251054
     0.662246995  0.591967810  0.469075872
     0.686502251  0.157946950  0.367217362
     0.301340593  0.674475127  0.994980179
     0.800244271  0.573360862  0.847188925
     0.825025001  0.176525571  0.990910856
     0.174075091  0.571334051  0.348957819
     0.162521844  0.655837759  0.371192728
     0.186482869  0.089829220  0.474126046
     0.336781603  0.155864955  0.871689281
     0.674873952  0.676578226  0.489345846
     0.324566236  0.071215102  0.852058706
     0.198707403  0.174353943  0.493724075
     0.312745602  0.590063101  0.972757566
     0.628168624  0.085558533  0.534651474
     0.901733080  0.122468966  0.792584854
     0.877252102  0.627350062  0.045639282
     0.597832529  0.622537742  0.290804138
     0.621568752  0.127484859  0.544690163
     0.371182187  0.662490166  0.806310306
     0.869881985  0.585395069  0.036203603
     0.894814978  0.164411128  0.802451396
     0.104176822  0.583369606  0.537608056
     0.097283200  0.625280035  0.548107422
     0.122020872  0.120308475  0.295552461
     0.401448940  0.125351654  0.050078176
[...]
     0.920571036  0.035571872  0.804916270
     0.898070435  0.713939753  0.033483830
     0.578811636  0.535648784  0.302948916
     0.600939961  0.214078800  0.532401344
     0.369809222  0.745583048  0.856412116
     0.867706632  0.502181785  0.988119202
     0.889796556  0.247827492  0.849759397
     0.108937594  0.500020897  0.488929813
     0.078438838  0.712129825  0.536770419
     0.101411611  0.033747983  0.308139781
     0.420186464  0.212241771  0.037196681
     0.610312330  0.747955322  0.347377981
     0.389180817  0.999857864  0.994569548
     0.130945311  0.245516259  0.352266126
     0.398297109  0.534053347  0.806712940

  ion indices of the primitive-cell ions
   primitive index   ion index
                 1           1
                 2           2
                 3           3
                 4           4
                 5           5
                 6           6
                 7           7
                 8           8
[...]
   0.141E+02 0.711E+02 -.152E+02   -.138E+02 -.667E+02 0.164E+02   -.195E+00 -.441E+01 -.123E+01   0.628E-04 0.118E-01 -.215E-02
   -.281E+02 -.387E+02 0.267E+02   0.276E+02 0.340E+02 -.274E+02   0.544E+00 0.464E+01 0.689E+00   -.717E-03 0.321E-01 -.403E-02
   -.307E+02 0.419E+02 -.273E+02   0.303E+02 -.373E+02 0.280E+02   0.462E+00 -.462E+01 -.692E+00   -.831E-03 -.291E-01 0.371E-02
   0.277E+02 -.387E+02 0.276E+02   -.272E+02 0.341E+02 -.283E+02   -.537E+00 0.463E+01 0.674E+00   -.326E-03 -.172E-01 0.177E-02
   0.145E+02 -.709E+02 0.144E+02   -.143E+02 0.665E+02 -.156E+02   -.206E+00 0.440E+01 0.122E+01   0.144E-02 0.328E-01 -.338E-02
   -.149E+02 0.706E+02 -.142E+02   0.147E+02 -.661E+02 0.154E+02   0.197E+00 -.441E+01 -.121E+01   -.129E-02 -.290E-01 0.310E-02
   0.120E+02 -.680E+02 0.160E+02   -.117E+02 0.636E+02 -.172E+02   -.286E+00 0.442E+01 0.124E+01   -.422E-04 -.155E-01 0.263E-02
   0.314E+02 0.424E+02 -.265E+02   -.309E+02 -.377E+02 0.272E+02   -.467E+00 -.464E+01 -.701E+00   -.371E-03 0.141E-01 -.154E-02
   0.570E+01 0.772E+02 -.342E+02   -.554E+01 -.770E+02 0.351E+02   -.152E+00 -.120E+00 -.923E+00   0.813E-03 -.266E-01 0.318E-02
   -.551E+01 0.405E+02 0.152E+02   0.572E+01 -.402E+02 -.158E+02   -.231E+00 -.264E+00 0.629E+00   0.265E-03 -.260E-01 0.354E-02
   -.478E+01 -.435E+02 -.142E+02   0.500E+01 0.432E+02 0.148E+02   -.235E+00 0.256E+00 -.594E+00   0.425E-03 0.272E-01 -.389E-02
   0.617E+01 0.412E+02 0.143E+02   -.639E+01 -.409E+02 -.149E+02   0.236E+00 -.267E+00 0.619E+00   -.148E-03 0.200E-01 -.197E-02
   0.381E+01 -.435E+02 -.150E+02   -.404E+01 0.432E+02 0.155E+02   0.236E+00 0.250E+00 -.597E+00   0.446E-04 -.210E-01 0.239E-02
   -.543E+01 -.775E+02 0.343E+02   0.527E+01 0.773E+02 -.352E+02   0.159E+00 0.121E+00 0.928E+00   -.809E-03 0.284E-01 -.351E-02
   -.658E+01 0.778E+02 -.335E+02   0.641E+01 -.777E+02 0.344E+02   0.158E+00 -.115E+00 -.925E+00   -.260E-03 0.179E-01 -.263E-02
   -.835E+01 -.809E+02 0.335E+02   0.820E+01 0.808E+02 -.344E+02   0.136E+00 0.106E+00 0.924E+00   -.187E-03 -.196E-01 0.270E-02
   0.822E+01 0.812E+02 -.337E+02   -.807E+01 -.811E+02 0.346E+02   -.141E+00 -.108E+00 -.929E+00   0.310E-03 0.176E-01 -.235E-02
   0.563E+01 -.404E+02 -.151E+02   -.585E+01 0.401E+02 0.157E+02   0.233E+00 0.269E+00 -.627E+00   -.349E-03 0.270E-01 -.367E-02
   0.466E+01 0.435E+02 0.142E+02   -.488E+01 -.432E+02 -.148E+02   0.237E+00 -.257E+00 0.598E+00   -.376E-03 -.260E-01 0.359E-02
   -.620E+01 -.411E+02 -.144E+02   0.642E+01 0.408E+02 0.150E+02   -.232E+00 0.266E+00 -.627E+00   -.315E-04 -.210E-01 0.219E-02
   0.873E+01 -.810E+02 0.327E+02   -.857E+01 0.808E+02 -.336E+02   -.145E+00 0.991E-01 0.920E+00   0.799E-03 0.286E-01 -.320E-02
   -.896E+01 0.808E+02 -.328E+02   0.881E+01 -.806E+02 0.337E+02   0.142E+00 -.983E-01 -.925E+00   -.693E-03 -.266E-01 0.294E-02
   0.636E+01 -.774E+02 0.335E+02   -.620E+01 0.773E+02 -.344E+02   -.160E+00 0.118E+00 0.918E+00   0.271E-03 -.197E-01 0.287E-02
   -.383E+01 0.433E+02 0.149E+02   0.406E+01 -.430E+02 -.155E+02   -.236E+00 -.255E+00 0.601E+00   -.245E-04 0.197E-01 -.222E-02
   0.415E+02 0.909E+02 -.727E+02   -.423E+02 -.922E+02 0.746E+02   0.920E+00 0.128E+01 -.196E+01   0.414E-03 -.263E-01 0.333E-02
   -.427E+02 0.828E+01 0.658E+02   0.438E+02 -.897E+01 -.681E+02   -.115E+01 0.712E+00 0.236E+01   0.191E-03 -.246E-01 0.287E-02
   -.435E+02 -.107E+02 -.659E+02   0.446E+02 0.114E+02 0.682E+02   -.115E+01 -.752E+00 -.241E+01   0.715E-03 0.251E-01 -.280E-02
   0.428E+02 0.850E+01 0.648E+02   -.439E+02 -.925E+01 -.671E+02   0.116E+01 0.724E+00 0.239E+01   -.628E-03 0.224E-01 -.321E-02
   0.431E+02 -.112E+02 -.669E+02   -.442E+02 0.119E+02 0.693E+02   0.113E+01 -.740E+00 -.239E+01   -.691E-05 -.226E-01 0.295E-02
   -.412E+02 -.915E+02 0.727E+02   0.421E+02 0.927E+02 -.746E+02   -.920E+00 -.128E+01 0.195E+01   -.424E-03 0.278E-01 -.331E-02
   -.414E+02 0.913E+02 -.718E+02   0.422E+02 -.926E+02 0.738E+02   -.885E+00 0.129E+01 -.200E+01   0.321E-03 0.186E-01 -.225E-02
   -.407E+02 -.941E+02 0.712E+02   0.415E+02 0.953E+02 -.731E+02   -.892E+00 -.127E+01 0.196E+01   -.153E-05 -.202E-01 0.245E-02
   0.407E+02 0.946E+02 -.712E+02   -.416E+02 -.959E+02 0.731E+02   0.896E+00 0.127E+01 -.195E+01   0.161E-03 0.185E-01 -.232E-02
   0.428E+02 -.794E+01 -.660E+02   -.439E+02 0.862E+01 0.683E+02   0.115E+01 -.708E+00 -.237E+01   -.798E-04 0.246E-01 -.294E-02
   0.434E+02 0.110E+02 0.660E+02   -.445E+02 -.117E+02 -.683E+02   0.114E+01 0.753E+00 0.241E+01   -.386E-03 -.248E-01 0.295E-02
   -.428E+02 -.863E+01 -.647E+02   0.440E+02 0.937E+01 0.671E+02   -.116E+01 -.730E+00 -.239E+01   0.225E-03 -.225E-01 0.303E-02
[...]
   -.734E+02 -.225E+03 -.143E+03   0.996E+02 0.247E+03 0.184E+03   -.262E+02 -.221E+02 -.407E+02   0.181E-02 0.507E-01 -.576E-02
   0.733E+02 0.224E+03 0.141E+03   -.992E+02 -.246E+03 -.182E+03   0.259E+02 0.224E+02 0.407E+02   -.534E-03 0.202E-01 -.284E-02
   0.735E+02 -.224E+03 -.144E+03   -.999E+02 0.246E+03 0.184E+03   0.264E+02 -.221E+02 -.405E+02   0.349E-03 -.255E-01 0.296E-02
   -.131E+03 -.369E+03 0.187E+03   0.153E+03 0.403E+03 -.222E+03   -.223E+02 -.338E+02 0.349E+02   -.237E-02 0.491E-01 -.671E-02
   -.131E+03 0.370E+03 -.186E+03   0.153E+03 -.404E+03 0.221E+03   -.220E+02 0.338E+02 -.352E+02   0.128E-02 0.147E-01 -.179E-02
   -.126E+03 -.373E+03 0.187E+03   0.148E+03 0.407E+03 -.223E+03   -.217E+02 -.339E+02 0.353E+02   0.927E-03 -.210E-01 0.269E-02
   0.126E+03 0.374E+03 -.187E+03   -.148E+03 -.408E+03 0.223E+03   0.217E+02 0.339E+02 -.352E+02   -.603E-03 0.147E-01 -.183E-02
   0.742E+02 -.222E+03 -.142E+03   -.100E+03 0.245E+03 0.182E+03   0.263E+02 -.224E+02 -.404E+02   -.946E-03 0.502E-01 -.591E-02
   0.728E+02 0.224E+03 0.143E+03   -.990E+02 -.246E+03 -.184E+03   0.262E+02 0.221E+02 0.407E+02   -.130E-02 -.451E-01 0.563E-02
   -.731E+02 -.223E+03 -.141E+03   0.991E+02 0.246E+03 0.182E+03   -.259E+02 -.225E+02 -.407E+02   -.332E-03 -.256E-01 0.272E-02
   0.125E+03 -.374E+03 0.186E+03   -.147E+03 0.408E+03 -.222E+03   0.216E+02 -.339E+02 0.355E+02   0.174E-02 0.492E-01 -.674E-02
   -.126E+03 0.373E+03 -.187E+03   0.147E+03 -.407E+03 0.222E+03   -.215E+02 0.339E+02 -.355E+02   -.190E-02 -.425E-01 0.564E-02
   0.131E+03 -.368E+03 0.186E+03   -.153E+03 0.402E+03 -.222E+03   0.220E+02 -.337E+02 0.352E+02   -.767E-03 -.212E-01 0.286E-02
   -.731E+02 0.224E+03 0.143E+03   0.996E+02 -.246E+03 -.184E+03   -.264E+02 0.220E+02 0.405E+02   -.496E-03 0.203E-01 -.232E-02
   -.418E-01 0.797E-01 -.312E-01   -.185E-12 0.148E-11 0.512E-12   0.435E-01 -.104E+00 0.385E-01   -.778E-02 0.576E-03 -.363E-03

 POSITION                                       TOTAL-FORCE (eV/Angst)
      6.01049     31.87299      8.85162        -0.004547      0.000528      0.003440
      7.22056     31.46417      4.85133         0.004656     -0.000715     -0.002301
      5.90146     26.80042      7.43874        -0.000130      0.001355     -0.002136
      6.16683     15.12865      4.33662         0.002814     -0.002479      0.000730
      5.07805      9.70166      1.07412        -0.003906      0.000039      0.005702
      0.92279     26.04041      2.69799        -0.002919      0.003015      0.002138
      4.95804     15.44729      6.18829        -0.004661      0.001645     -0.000888
      6.27615     10.05917      2.92577         0.001525      0.001330      0.000057
      3.03606     15.04813      3.27369         0.006847      0.002176     -0.004156
      2.12567     26.35758      4.55392         0.003513     -0.000232     -0.005505
      1.02778     31.78515      7.81138        -0.005758      0.000678     -0.004757
      3.14410     10.02672      4.01957         0.004497      0.003130      0.001818
      7.10748     26.44325      5.59199         0.004411      0.000773      0.003195
      2.23261     31.42740      5.96380         0.000674     -0.000850      0.002938
      1.93786     10.34527      5.87322        -0.003408      0.001201     -0.002241
      1.83009     15.41970      7.27775        -0.000531     -0.001096      0.001256
      5.62203      1.21139      2.03963        -0.003800      0.002504      0.003777
      6.85525      2.27056      5.75239        -0.002037      0.003416     -0.003920
      6.68278     23.63313      7.36750        -0.000359     -0.006172      0.001080
      5.30810     18.28381      4.41091         0.003842      0.002499      0.000461
      5.49235      6.89299      2.85229        -0.004145     -0.004582      0.003705
      2.50351     23.54013      2.32827        -0.001822     -0.000495     -0.004725
      6.53742     17.94962      6.56139         0.004723      0.002296      0.002385
      6.72985      7.23182      0.70737         0.003379     -0.003787      0.000877
      1.38750     17.51767      3.64194         0.002138      0.002070     -0.000295
      1.25693     23.20240      4.46871         0.007571     -0.003100      0.000874
      1.43086      1.83780      2.85269         0.000507      0.005661     -0.003204
      2.80072      7.19133      5.80245        -0.003669     -0.005721      0.004565
      5.45695     23.97358      5.21688        -0.001087     -0.005687     -0.001066
      2.65760      1.50036      5.00420        -0.004486      0.002156      0.003783
      1.57019      7.52176      3.65261        -0.003347     -0.002421     -0.004055
      2.61904     18.58777      7.35577         0.000467      0.005005     -0.002252
      5.66435      2.66166      2.25247         0.002740     -0.001993      0.000654
      6.78407      3.72057      5.96112        -0.001546     -0.000324      0.001723
      6.60113     22.18299      7.15900         0.002545     -0.000098      0.001077
      5.38134     19.73446      4.61958         0.000658     -0.000610      0.000927
      5.57139      5.44376      2.64326        -0.000373     -0.001482      0.003824
      2.44921     22.81729      7.96692         0.000653      0.000969      0.001550
      6.49781     19.40026      6.77309        -0.002182      0.000145     -0.000680
      6.69071      6.50597      6.35327        -0.006449      0.004777      0.002089
      1.41995     18.96898      3.85722         0.003971     -0.002950     -0.003868
      1.32749     21.75308      4.25618         0.000278      0.002892      0.001375
      1.51109      3.28771      3.05981        -0.001142      0.000509      0.000894
      2.72874      5.74026      5.59608         0.001002     -0.000256      0.000385
      5.48514     22.52075      5.00703         0.004415      0.004500      0.000742
      2.62827      2.95314      5.21224        -0.005036     -0.001850     -0.003867
      1.61163      6.07071      3.44306         0.000174      0.002552     -0.000398
      2.54047     20.03620      7.56833         0.002235      0.001267     -0.000288
      5.09526      3.19392      3.39463        -0.000470      0.001624     -0.001503
      7.31400      4.59162      5.01884        -0.000349      0.001237      0.001759
      7.13054     20.58695      2.24906         0.001979     -0.001802     -0.000981
      4.86059     20.60602      3.67351         0.001440      0.000849      0.000765
      5.04235      4.57452      3.58677        -0.004215     -0.000721     -0.002000
      3.01743     22.28802      6.82286        -0.000204     -0.000140      0.002061
      7.07006     19.20578      2.06056        -0.000524      0.000708     -0.004724
      7.25851      5.97261      5.21003        -0.002413     -0.002814      0.000971
      0.85127     19.49989      5.00133         0.002044      0.001391     -0.000135
      0.79597     20.88031      5.19612         0.002485     -0.003337     -0.006415
      0.98996      4.15609      2.11169        -0.003275      0.003288      0.002753
      3.25998      4.14435      0.68616        -0.003618     -0.005416     -0.002611
[...]
      7.46525      1.75425      4.81463         0.002105     -0.002686      0.002654
      7.30113     23.41456      2.45278         0.004641     -0.000057     -0.003506
      4.70458     17.76861      3.46875        -0.002760     -0.001800      0.001358
      4.87656      7.40198      3.79029        -0.000387     -0.001378     -0.004835
      3.00734     25.04620      7.38040        -0.003209      0.001082     -0.000834
      7.04290     17.17139      7.37134        -0.000095     -0.004580      0.001407
      7.21886      8.73934      5.75229        -0.002202      0.003282     -0.003821
      0.88885     16.73438      4.45126        -0.001535     -0.001557      0.001608
      0.64466     23.71684      5.40601        -0.001352      0.002320     -0.001882
      0.82106      1.32974      1.91059        -0.001738     -0.004050      0.003228
      3.41370      6.98127      0.88661         0.000191      0.003037      0.000843
      4.96362     24.75537      4.40329         0.004435      0.000828     -0.002354
      3.16788     33.47570      8.99745        -0.002771     -0.004281      0.000850
      1.06412      8.29864      2.84167         0.002737     -0.000275     -0.002641
      3.23523     18.08135      6.41664         0.003366     -0.005564      0.002130
    total drift:                               -0.006114     -0.024025      0.006883

  FREE ENERGIE OF THE ION-ELECTRON SYSTEM (eV)
  free  energy   TOTEN  =     -1184.70341526 eV

  energy  without entropy=    -1184.66910046  energy(sigma->0) =    -1184.68625786

 reached required accuracy - stopping structural energy minimisation
 writing wavefunctions

 total charge

[...]

 magnetization (x)

# of ion       s       p       d       tot
    1        0.003   0.022   0.000   0.025
    2        0.003   0.023   0.000   0.025
    3        0.003   0.022   0.000   0.025
    4       -0.003  -0.022   0.000  -0.025
    5       -0.003  -0.022   0.000  -0.025
    6        0.003   0.023   0.000   0.025
    7       -0.003  -0.022   0.000  -0.025
    8       -0.003  -0.022   0.000  -0.025
    9       -0.003  -0.022   0.000  -0.025
   10        0.003   0.022   0.000   0.025
   11        0.003   0.022   0.000   0.025
   12       -0.003  -0.023   0.000  -0.025
   13        0.003   0.022   0.000   0.025
   14        0.003   0.022   0.000   0.025
   15       -0.003  -0.022   0.000  -0.025
   16       -0.003  -0.022   0.000  -0.025
   17        0.000   0.001   0.000   0.001
   18        0.000   0.001   0.000   0.001
   19        0.000   0.001   0.000   0.001
   20       -0.000  -0.001   0.000  -0.001
   21       -0.000  -0.001   0.000  -0.001
   22        0.000   0.001   0.000   0.001
   23       -0.000  -0.001   0.000  -0.001
   24       -0.000  -0.001   0.000  -0.001
   25       -0.000  -0.001   0.000  -0.001
   26        0.000   0.001   0.000   0.001
   27        0.000   0.001   0.000   0.001
   28       -0.000  -0.001   0.000  -0.001
   29        0.000   0.001   0.000   0.001
   30        0.000   0.001   0.000   0.001
   31       -0.000  -0.001   0.000  -0.001
   32       -0.000  -0.001   0.000  -0.001
   33       -0.000  -0.000   0.000  -0.000
   34        0.000  -0.000   0.000  -0.000
   35        0.000  -0.000   0.000  -0.000
   36       -0.000   0.000   0.000   0.000
   37       -0.000   0.000   0.000   0.000
   38       -0.000  -0.000   0.000  -0.000
   39        0.000   0.000   0.000   0.000
   40        0.000   0.000   0.000   0.000
   41        0.000   0.000   0.000   0.000
   42        0.000  -0.000   0.000  -0.000
   43        0.000  -0.000   0.000  -0.000
   44       -0.000   0.000   0.000   0.000
   45       -0.000  -0.000   0.000  -0.000
   46       -0.000  -0.000   0.000  -0.000
   47        0.000   0.000   0.000   0.000
   48       -0.000   0.000   0.000   0.000
   49        0.000   0.000   0.000   0.000
   50        0.000   0.000   0.000   0.000
   51        0.000   0.000   0.000   0.000
   52       -0.000  -0.000   0.000  -0.000
   53       -0.000  -0.000   0.000  -0.000
   54        0.000   0.000   0.000   0.000
   55       -0.000  -0.000   0.000  -0.000
   56       -0.000  -0.000   0.000  -0.000
   57       -0.000  -0.000   0.000  -0.000
   58        0.000   0.000   0.000   0.000
   59        0.000   0.000   0.000   0.000
   60       -0.000  -0.000   0.000  -0.000
[...]
  142        0.000   0.001   0.000   0.001
  143        0.000   0.001   0.000   0.001
  144       -0.000  -0.001   0.000  -0.001
  145       -0.000  -0.001   0.000  -0.001
  146        0.000   0.002   0.000   0.002
  147       -0.000  -0.002   0.000  -0.002
  148       -0.000  -0.002   0.000  -0.002
  149       -0.000  -0.002   0.000  -0.002
  150        0.000   0.001   0.000   0.001
  151        0.000   0.001   0.000   0.001
  152       -0.000  -0.001   0.000  -0.001
  153        0.000   0.002   0.000   0.002
  154        0.000   0.002   0.000   0.002
  155       -0.000  -0.002   0.000  -0.002
  156       -0.000  -0.001   0.000  -0.001
tot          0.000   0.002   0.005   0.007