 vasp.6.0.8 29Jun18 (build Mar 14 2019 11:44:20) complex

 executed on             LinuxIFC date 2021.01.11  19:24:45

 INCAR:
 POTCAR:    PAW_PBE C 08Apr2002
 POTCAR:    PAW_PBE Co 02Aug2007
 POTCAR:    PAW_PBE H 15Jun2001
 POTCAR:    PAW_PBE N 08Apr2002
 POTCAR:    PAW_PBE O 08Apr2002
 POTCAR:    PAW_PBE C 08Apr2002
   VRHFIN =C: s2p2

   TITEL  = PAW_PBE C 08Apr2002
   POMASS =   12.011; ZVAL   =    4.000    mass and valenz
   ENMAX  =  400.000; ENMIN  =  300.000 eV

 POTCAR:    PAW_PBE Co 02Aug2007
   VRHFIN =Co: d8 s1

   TITEL  = PAW_PBE Co 02Aug2007
   POMASS =   58.933; ZVAL   =    9.000    mass and valenz
   ENMAX  =  267.968; ENMIN  =  200.976 eV

 POTCAR:    PAW_PBE H 15Jun2001
   VRHFIN =H: ultrasoft test

   TITEL  = PAW_PBE H 15Jun2001
   POMASS =    1.000; ZVAL   =    1.000    mass and valenz
   ENMAX  =  250.000; ENMIN  =  200.000 eV

 POTCAR:    PAW_PBE N 08Apr2002
   VRHFIN =N: s2p3

[...]

 POTCAR:    PAW_PBE O 08Apr2002
   VRHFIN =O: s2p4

   TITEL  = PAW_PBE O 08Apr2002
   POMASS =   16.000; ZVAL   =    6.000    mass and valenz
   ENMAX  =  400.000; ENMIN  =  300.000 eV

 Optimization of the real space projectors (new method)

 maximal supplied QI-value         = 25.13
 optimisation between [QCUT,QGAM] = [ 12.32, 24.88] = [ 42.47,173.37] Ry
 Optimized for a Real-space Cutoff    1.06 Angstroem

   l    n(q)    QCUT    max X(q) W(low)/X(q) W(high)/X(q)  e(spline)
   0      8    12.315   115.676    0.34E-03    0.18E-03    0.23E-06
   0      8    12.315    87.132    0.34E-03    0.18E-03    0.22E-06
   1      7    12.315     4.429    0.45E-03    0.12E-03    0.18E-06
   1      7    12.315     2.733    0.35E-03    0.97E-04    0.15E-06
 Optimization of the real space projectors (new method)

[...]

   l    n(q)    QCUT    max X(q) W(low)/X(q) W(high)/X(q)  e(spline)
   0      9    12.315    79.467    0.14E-03    0.22E-04    0.37E-06
   0      9    12.315    66.151    0.14E-03    0.23E-04    0.36E-06
   1      8    12.315    22.077    0.30E-03    0.54E-03    0.45E-06
   1      8    12.315    15.894    0.30E-03    0.55E-03    0.45E-06
 Optimization of the real space projectors (new method)

 maximal supplied QI-value         = 24.76
 optimisation between [QCUT,QGAM] = [ 12.38, 25.00] = [ 42.90,175.06] Ry
 Optimized for a Real-space Cutoff    1.13 Angstroem

   l    n(q)    QCUT    max X(q) W(low)/X(q) W(high)/X(q)  e(spline)
   0      8    12.378    20.381    0.16E-03    0.54E-05    0.27E-06
   0      8    12.378    15.268    0.17E-03    0.61E-05    0.29E-06
   1      8    12.378     5.964    0.38E-03    0.23E-03    0.28E-06
   1      8    12.378     5.382    0.33E-03    0.20E-03    0.25E-06
  PAW_PBE C 08Apr2002                   :
  PAW_PBE Co 02Aug2007                  :
  PAW_PBE H 15Jun2001                   :
  PAW_PBE N 08Apr2002                   :
  PAW_PBE O 08Apr2002                   :

 POSCAR: CoH_5
  positions in direct lattice
  velocities in cartesian coordinates
 exchange correlation table for  LEXCH =        8
   RHO(1)=    0.500       N(1)  =     2000
   RHO(2)=  100.500       N(2)  =     4000

 ion  position               nearest neighbor table
   1  0.880  0.964  0.123- 107 1.09 117 1.35  65 1.40
   2  0.938  0.979  0.405- 112 1.08 118 1.35  65 1.40
   3  0.880  0.817  0.925- 116 1.09 119 1.35  66 1.40
   4  0.620  0.464  0.627- 110 1.09 120 1.35  67 1.40
   5  0.562  0.301  0.147- 111 1.08 121 1.35  68 1.40
   6  0.062  0.801  0.142- 115 1.08 122 1.35  69 1.40
   7  0.562  0.479  0.910- 101 1.09 123 1.35  67 1.40
   8  0.620  0.316  0.430- 113 1.09 124 1.35  68 1.40
   9  0.438  0.479  0.411- 114 1.09 125 1.35  70 1.40
  10  0.120  0.817  0.425- 104 1.09 126 1.35  69 1.40
  11  0.062  0.979  0.905- 105 1.08 127 1.35  71 1.40
  12  0.438  0.301  0.648- 102 1.09 128 1.35  72 1.40
  13  0.937  0.801  0.642- 108 1.08 129 1.35  66 1.40
  14  0.120  0.964  0.622- 109 1.09 130 1.35  71 1.40
  15  0.380  0.316  0.931- 106 1.09 131 1.35  72 1.40
  16  0.380  0.464  0.127- 103 1.09 132 1.35  70 1.40
  17  0.805  0.033  0.458- 141 1.23 133 1.42  33 1.48
  18  0.848  0.078  0.072- 142 1.23 133 1.42  34 1.48
  19  0.848  0.703  0.978- 143 1.23 134 1.42  35 1.48
  20  0.652  0.577  0.574- 144 1.23 135 1.42  36 1.48
  21  0.652  0.203  0.482- 145 1.23 136 1.42  37 1.48
  22  0.194  0.747  0.092- 146 1.23 137 1.42  38 1.48
  23  0.694  0.533  0.960- 147 1.23 135 1.42  39 1.48
  24  0.695  0.247  0.096- 148 1.23 136 1.42  40 1.48
  25  0.306  0.533  0.460- 149 1.23 138 1.42  41 1.48
  26  0.152  0.703  0.478- 150 1.23 137 1.42  42 1.48
  27  0.152  0.078  0.572- 151 1.23 139 1.42  43 1.48
  28  0.348  0.202  0.982- 152 1.23 140 1.42  44 1.48
  29  0.805  0.747  0.593- 153 1.23 134 1.42  45 1.48
  30  0.194  0.033  0.957- 154 1.23 139 1.42  46 1.48
  31  0.305  0.247  0.597- 155 1.23 140 1.42  47 1.48
  32  0.348  0.577  0.075- 156 1.23 138 1.42  48 1.48
  33  0.766  0.077  0.458-  49 1.39  73 1.42  17 1.48
  34  0.809  0.121  0.083-  50 1.39  73 1.42  18 1.48
  35  0.809  0.660  0.969-  51 1.39  74 1.42  19 1.48
  36  0.691  0.621  0.585-  52 1.39  75 1.42  20 1.48
  37  0.691  0.159  0.470-  53 1.39  76 1.42  21 1.48
  38  0.234  0.703  0.093-  54 1.39  77 1.42  22 1.48
  39  0.734  0.577  0.960-  55 1.39  75 1.42  23 1.48
  40  0.734  0.203  0.095-  56 1.39  76 1.42  24 1.48
  41  0.266  0.577  0.460-  57 1.39  78 1.42  25 1.48
  42  0.191  0.660  0.468-  58 1.39  77 1.42  26 1.48
  43  0.191  0.121  0.584-  59 1.39  79 1.42  27 1.48
  44  0.309  0.159  0.971-  60 1.39  80 1.42  28 1.48
  45  0.766  0.703  0.593-  61 1.39  74 1.42  29 1.48
  46  0.234  0.077  0.958-  62 1.39  79 1.42  30 1.48
  47  0.266  0.203  0.596-  63 1.39  80 1.42  31 1.48
  48  0.309  0.621  0.084-  64 1.39  78 1.42  32 1.48
  49  0.726  0.076  0.642-  88 1.09  33 1.39  53 1.40
  50  0.812  0.163  0.905-  99 1.09  34 1.39  56 1.40
  51  0.811  0.617  0.148-  93 1.09  35 1.39  55 1.40
  52  0.688  0.663  0.406-  90 1.09  36 1.39  61 1.40
  53  0.689  0.117  0.648-  98 1.09  37 1.39  49 1.40
  54  0.274  0.704  0.909-  96 1.09  38 1.39  64 1.40
  55  0.774  0.576  0.143-  86 1.09  39 1.39  51 1.40
  56  0.774  0.204  0.911-  87 1.09  40 1.39  50 1.40
  57  0.226  0.576  0.643-  95 1.09  41 1.39  58 1.40
  58  0.188  0.617  0.647-  91 1.09  42 1.39  57 1.40
  59  0.188  0.163  0.406-  92 1.09  43 1.39  63 1.40
  60  0.311  0.117  0.149-  85 1.09  44 1.39  62 1.40
[...]
 142  0.882  0.077  0.907-  18 1.23
 143  0.882  0.704  0.142-  19 1.23
 144  0.618  0.577  0.410-  20 1.23
 145  0.619  0.203  0.647-  21 1.23
 146  0.195  0.784  0.934-  22 1.23
 147  0.695  0.496  0.118-  23 1.23
 148  0.695  0.284  0.938-  24 1.23
 149  0.305  0.496  0.619-  25 1.23
 150  0.118  0.704  0.642-  26 1.23
 151  0.118  0.077  0.407-  27 1.23
 152  0.382  0.203  0.147-  28 1.23
 153  0.805  0.784  0.434-  29 1.23
 154  0.195  0.996  0.114-  30 1.23
 155  0.305  0.284  0.439-  31 1.23
 156  0.382  0.577  0.910-  32 1.23

IMPORTANT INFORMATION: All symmetrisations will be switched off!
NOSYMM: (Re-)initialisation of all symmetry stuff for point group C_1.

                                     Primitive cell

  volume of cell :    3438.4610

  direct lattice vectors                    reciprocal lattice vectors
    20.587008033 -0.001770633  0.006678774     0.048574331  0.000002383 -0.000019514
     0.000208193 28.058524392  3.945030362     0.000004660  0.036306296 -0.004740416
     0.002397259  0.791748386  6.063911671    -0.000056532 -0.023619977  0.167994072

  length of vectors
    20.587009192 28.334502919  6.115381919     0.048574335  0.036614460  0.169646440

  position of ions in fractional coordinates (direct lattice)
     0.879944184  0.963884610  0.122634283
     0.937592164  0.979402052  0.405469211
     0.879930407  0.816585426  0.925362639
     0.619682814  0.463715409  0.626730879
     0.562341045  0.300616842  0.147392211
     0.062258837  0.800958030  0.141935011
     0.562178892  0.479110858  0.910431157
     0.620021262  0.316299534  0.429795918
     0.437649779  0.479099071  0.410645243
     0.119822176  0.816584556  0.424712699
     0.062331201  0.979400932  0.905129576
     0.437686420  0.300528368  0.647842923
     0.937459446  0.800985480  0.642156317
     0.119973284  0.963923911  0.621937110
     0.380009228  0.316156179  0.930634905
     0.380158915  0.463693622  0.127197892
     0.805481844  0.033112378  0.457539912
     0.847908066  0.077580912  0.072054613
     0.847957395  0.702804600  0.978372904
     0.651573460  0.577443211  0.574411369
     0.652249932  0.202560586  0.481599444
     0.194380555  0.746935932  0.092131371
     0.694004868  0.533288148  0.960125637
     0.694524477  0.246956977  0.095744018
     0.305816710  0.533332608  0.460473475
     0.151746505  0.702805400  0.477914559
     0.152017973  0.077692265  0.571886830
     0.347776987  0.202387907  0.982055383
     0.805472059  0.746949544  0.592677181
     0.194463055  0.033049527  0.956811335
     0.305498548  0.246959480  0.596639305
     0.348355854  0.577417225  0.074554299
     0.765837133  0.076683764  0.458372913
     0.808925444  0.120829111  0.083410451
     0.808760143  0.659533189  0.968620133
     0.690659785  0.620725494  0.584564913
     0.691264951  0.159318290  0.470262772
     0.234212846  0.703334827  0.092909382
     0.733778159  0.576886815  0.959719452
     0.734303749  0.203430922  0.095111728
     0.266024638  0.576934492  0.459788556
     0.190993755  0.659557719  0.468276474
     0.191027752  0.120907011  0.583527806
     0.308647719  0.159205978  0.970625726
     0.765606628  0.703368101  0.593491991
     0.234030319  0.076633441  0.958166295
     0.265689305  0.203465593  0.595731631
     0.309202462  0.620691346  0.084358634
     0.725720402  0.075795307  0.642335061
     0.811548459  0.163139670  0.905156648
     0.811327663  0.617345008  0.147589119
     0.688082416  0.662903246  0.405601378
     0.688616338  0.116982466  0.648417756
     0.274415408  0.703999800  0.909415772
     0.774008728  0.576158146  0.143035752
     0.774391552  0.204305074  0.911087560
     0.225757520  0.576236140  0.643157668
     0.188397267  0.617412398  0.647479877
     0.188448197  0.163268590  0.405558147
     0.311152503  0.116847436  0.148670557
[...]
     0.881669396  0.076837152  0.907249336
     0.881871472  0.703668023  0.142498723
     0.617800634  0.576565189  0.409968455
     0.618579836  0.203329691  0.646573753
     0.194943199  0.784189717  0.933580021
     0.694535808  0.495994306  0.118458692
     0.694986070  0.284320824  0.937783925
     0.305246354  0.496081191  0.619043828
     0.117781266  0.703655753  0.642098304
     0.118245244  0.077034036  0.407150875
     0.381517784  0.203070741  0.146831614
     0.805031929  0.784189083  0.434032376
     0.195105767  0.995564147  0.114111379
     0.305083463  0.284395314  0.439061520
     0.382235693  0.576524380  0.910222025

  ion indices of the primitive-cell ions
   primitive index   ion index
                 1           1
                 2           2
                 3           3
                 4           4
                 5           5
                 6           6
                 7           7
                 8           8
[...]