 vasp.5.4.4.18Apr17-6-g9f103f2a35 (build May 22 2020 17:00:04) complex

 executed on           IFC15_impi date 2020.09.22  10:57:04

 INCAR:
 POTCAR:    PAW_PBE C 08Apr2002
 POTCAR:    PAW_PBE Co 02Aug2007
 POTCAR:    PAW_PBE H 15Jun2001
 POTCAR:    PAW_PBE N 08Apr2002
 POTCAR:    PAW_PBE O 08Apr2002

 POTCAR:    PAW_PBE C 08Apr2002
   VRHFIN =C: s2p2

   TITEL  = PAW_PBE C 08Apr2002
   POMASS =   12.011; ZVAL   =    4.000    mass and valenz
   ENMAX  =  400.000; ENMIN  =  300.000 eV

 POTCAR:    PAW_PBE Co 02Aug2007
   VRHFIN =Co: d8 s1

   TITEL  = PAW_PBE Co 02Aug2007
   POMASS =   58.933; ZVAL   =    9.000    mass and valenz
   ENMAX  =  267.968; ENMIN  =  200.976 eV

 POTCAR:    PAW_PBE H 15Jun2001
   VRHFIN =H: ultrasoft test

   TITEL  = PAW_PBE H 15Jun2001
   POMASS =    1.000; ZVAL   =    1.000    mass and valenz
   ENMAX  =  250.000; ENMIN  =  200.000 eV

 POTCAR:    PAW_PBE N 08Apr2002
   VRHFIN =N: s2p3

[...]

 POTCAR:    PAW_PBE O 08Apr2002
   VRHFIN =O: s2p4

   TITEL  = PAW_PBE O 08Apr2002
   POMASS =   16.000; ZVAL   =    6.000    mass and valenz
   ENMAX  =  400.000; ENMIN  =  300.000 eV

 Optimization of the real space projectors (new method)

 maximal supplied QI-value         = 25.13
 optimisation between [QCUT,QGAM] = [ 12.32, 24.88] = [ 42.47,173.37] Ry
 Optimized for a Real-space Cutoff    1.06 Angstroem

   l    n(q)    QCUT    max X(q) W(low)/X(q) W(high)/X(q)  e(spline)
   0      8    12.315   115.676    0.34E-03    0.18E-03    0.23E-06
   0      8    12.315    87.132    0.34E-03    0.18E-03    0.22E-06
   1      7    12.315     4.429    0.45E-03    0.12E-03    0.18E-06
   1      7    12.315     2.733    0.35E-03    0.97E-04    0.15E-06
 Optimization of the real space projectors (new method)

[...]

   l    n(q)    QCUT    max X(q) W(low)/X(q) W(high)/X(q)  e(spline)
   0      9    12.315    79.467    0.14E-03    0.22E-04    0.37E-06
   0      9    12.315    66.151    0.14E-03    0.23E-04    0.36E-06
   1      8    12.315    22.077    0.30E-03    0.54E-03    0.45E-06
   1      8    12.315    15.894    0.30E-03    0.55E-03    0.45E-06
 Optimization of the real space projectors (new method)

 maximal supplied QI-value         = 24.76
 optimisation between [QCUT,QGAM] = [ 12.38, 25.00] = [ 42.90,175.06] Ry
 Optimized for a Real-space Cutoff    1.13 Angstroem

   l    n(q)    QCUT    max X(q) W(low)/X(q) W(high)/X(q)  e(spline)
   0      8    12.378    20.381    0.16E-03    0.54E-05    0.27E-06
   0      8    12.378    15.268    0.17E-03    0.61E-05    0.29E-06
   1      8    12.378     5.964    0.38E-03    0.23E-03    0.28E-06
   1      8    12.378     5.382    0.33E-03    0.20E-03    0.25E-06
  PAW_PBE C 08Apr2002                   :
  PAW_PBE Co 02Aug2007                  :
  PAW_PBE H 15Jun2001                   :
  PAW_PBE N 08Apr2002                   :
  PAW_PBE O 08Apr2002                   :

 POSCAR: Co_B
  positions in direct lattice
  velocities in cartesian coordinates
 exchange correlation table for  LEXCH =        8
   RHO(1)=    0.500       N(1)  =     2000
   RHO(2)=  100.500       N(2)  =     4000

 ion  position               nearest neighbor table
   1  0.919  0.961  0.130- 107 1.08 117 1.35  65 1.40
   2  0.827  0.954  0.423- 112 1.09 118 1.35  65 1.40
   3  0.920  0.800  0.920- 116 1.08 119 1.35  66 1.40
   4  0.582  0.461  0.629- 110 1.08 120 1.35  67 1.40
   5  0.673  0.307  0.127- 111 1.09 121 1.35  68 1.40
   6  0.174  0.808  0.129- 115 1.09 122 1.35  69 1.40
   7  0.674  0.454  0.925- 101 1.09 123 1.35  67 1.40
   8  0.580  0.300  0.420- 113 1.08 124 1.35  68 1.40
   9  0.328  0.454  0.422- 114 1.09 125 1.35  70 1.40
  10  0.081  0.800  0.422- 104 1.08 126 1.35  69 1.40
  11  0.173  0.954  0.927- 105 1.09 127 1.35  71 1.40
  12  0.326  0.307  0.623- 102 1.09 128 1.35  72 1.40
  13  0.827  0.807  0.624- 108 1.09 129 1.35  66 1.40
  14  0.081  0.961  0.631- 109 1.08 130 1.35  71 1.40
  15  0.418  0.300  0.919- 106 1.08 131 1.35  72 1.40
  16  0.420  0.461  0.128- 103 1.08 132 1.35  70 1.40
  17  0.747  0.034  0.116- 141 1.23 133 1.42  33 1.48
  18  0.859  0.053  0.448- 142 1.23 133 1.41  34 1.48
  19  0.860  0.708  0.602- 143 1.23 134 1.41  35 1.48
  20  0.642  0.553  0.948- 144 1.23 135 1.41  36 1.48
  21  0.639  0.208  0.103- 145 1.23 136 1.41  37 1.48
  22  0.253  0.727  0.435- 146 1.23 137 1.42  38 1.48
  23  0.753  0.534  0.618- 147 1.23 135 1.42  39 1.48
  24  0.751  0.227  0.434- 148 1.23 136 1.42  40 1.48
  25  0.250  0.535  0.115- 149 1.23 138 1.42  41 1.48
  26  0.142  0.708  0.103- 150 1.23 137 1.41  42 1.48
  27  0.140  0.053  0.948- 151 1.23 139 1.41  43 1.48
  28  0.358  0.208  0.601- 152 1.23 140 1.41  44 1.48
  29  0.749  0.727  0.932- 153 1.23 134 1.42  45 1.48
  30  0.252  0.034  0.620- 154 1.23 139 1.42  46 1.48
  31  0.247  0.227  0.930- 155 1.23 140 1.42  47 1.48
  32  0.362  0.553  0.446- 156 1.23 138 1.41  48 1.48
  33  0.719  0.079  0.118-  49 1.39  73 1.42  17 1.48
  34  0.830  0.097  0.441-  50 1.39  73 1.42  18 1.48
  35  0.832  0.663  0.610-  51 1.39  74 1.42  19 1.48
  36  0.670  0.597  0.940-  52 1.39  75 1.42  20 1.48
  37  0.668  0.163  0.110-  53 1.39  76 1.42  21 1.48
  38  0.281  0.682  0.434-  54 1.39  77 1.42  22 1.48
  39  0.780  0.579  0.619-  55 1.39  75 1.42  23 1.48
  40  0.779  0.182  0.433-  56 1.39  76 1.42  24 1.48
  41  0.222  0.579  0.116-  57 1.39  78 1.42  25 1.48
  42  0.170  0.664  0.109-  58 1.39  77 1.42  26 1.48
  43  0.169  0.098  0.940-  59 1.39  79 1.42  27 1.48
  44  0.330  0.163  0.609-  60 1.39  80 1.42  28 1.48
  45  0.722  0.682  0.931-  61 1.39  74 1.42  29 1.48
  46  0.279  0.079  0.619-  62 1.39  79 1.42  30 1.48
  47  0.219  0.182  0.930-  63 1.39  80 1.42  31 1.48
  48  0.333  0.598  0.440-  64 1.39  78 1.42  32 1.48
  49  0.652  0.091  0.959-  88 1.09  33 1.39  53 1.40
  50  0.872  0.128  0.596-  99 1.09  34 1.39  56 1.41
  51  0.873  0.633  0.457-  93 1.09  35 1.39  55 1.40
  52  0.629  0.628  0.094-  90 1.09  36 1.39  61 1.40
  53  0.626  0.133  0.955-  98 1.09  37 1.39  49 1.40
  54  0.348  0.670  0.592-  96 1.09  38 1.39  64 1.41
  55  0.847  0.591  0.461-  86 1.09  39 1.39  51 1.40
  56  0.846  0.170  0.592-  87 1.09  40 1.39  50 1.41
  57  0.155  0.591  0.958-  95 1.09  41 1.39  58 1.40
  58  0.129  0.634  0.954-  91 1.09  42 1.39  57 1.40
  59  0.127  0.128  0.093-  92 1.09  43 1.39  63 1.41
  60  0.371  0.133  0.456-  85 1.09  44 1.39  62 1.40
[...]
 142  0.920  0.042  0.585-  18 1.23
 143  0.920  0.719  0.466-  19 1.23
 144  0.581  0.542  0.084-  20 1.23
 145  0.578  0.219  0.966-  21 1.23
 146  0.283  0.754  0.577-  22 1.23
 147  0.783  0.507  0.479-  23 1.23
 148  0.782  0.254  0.574-  24 1.23
 149  0.219  0.508  0.973-  25 1.23
 150  0.081  0.719  0.966-  26 1.23
 151  0.080  0.042  0.084-  27 1.23
 152  0.418  0.219  0.464-  28 1.23
 153  0.718  0.754  0.071-  29 1.23
 154  0.283  0.007  0.480-  30 1.23
 155  0.216  0.254  0.069-  31 1.23
 156  0.423  0.542  0.583-  32 1.23

IMPORTANT INFORMATION: All symmetrisations will be switched off!
NOSYMM: (Re-)initialisation of all symmetry stuff for point group C_1.

Automatic generation of k-mesh.
 generate k-points for:    2    1    4
Space group operators:
 irot       det(A)        alpha          n_x          n_y          n_z        tau_x        tau_y        tau_z
    1     1.000000     0.000000     1.000000     0.000000     0.000000     0.000000     0.000000     0.000000

 Subroutine IBZKPT returns following result:

 Found      6 irreducible k-points:

 Following reciprocal coordinates:
            Coordinates               Weight
  0.000000  0.000000  0.000000      1.000000
  0.500000 -0.000000 -0.000000      1.000000
 -0.000000  0.000000  0.250000      2.000000
  0.500000 -0.000000  0.250000      2.000000
 -0.000000  0.000000  0.500000      1.000000
  0.500000 -0.000000  0.500000      1.000000

 Following cartesian coordinates:
            Coordinates               Weight
  0.000000  0.000000  0.000000      1.000000
  0.041994  0.000033  0.000170      1.000000
  0.000130  0.002511  0.039086      2.000000
  0.042124  0.002544  0.039256      2.000000
  0.000259  0.005022  0.078172      1.000000
  0.042254  0.005056  0.078342      1.000000

 SYSTEM =  flex_MOF
 POSCAR =  Co_B

 Startparameter for this run:
   NWRITE =      2    write-flag & timer
   PREC   = normal    normal or accurate (medium, high low for compatibility)
   ISTART =      0    job   : 0-new  1-cont  2-samecut
   ICHARG =      2    charge: 1-file 2-atom 10-const
   ISPIN  =      2    spin polarized calculation?
   LNONCOLLINEAR =      F non collinear calculations
   LSORBIT =      F    spin-orbit coupling
   INIWAV =      1    electr: 0-lowe 1-rand  2-diag
   LASPH  =      F    aspherical Exc in radial PAW
   METAGGA=      F    non-selfconsistent MetaGGA calc.

 Electronic Relaxation 1
   ENCUT  =  600.0 eV  44.10 Ry    6.64 a.u.  23.78 64.78 12.86*2*pi/ulx,y,z
   ENINI  =  600.0     initial cutoff
   ENAUG  =  644.9 eV  augmentation charge cutoff
   NELM   =     80;   NELMIN=  8; NELMDL= -5     # of ELM steps
   EDIFF  = 0.1E-05   stopping-criterion for ELM
   LREAL  =      T    real-space projection
   NLSPLINE    = F    spline interpolate recip. space projectors
   LCOMPAT=      F    compatible to vasp.4.4
   GGA_COMPAT  = T    GGA compatible to vasp.4.4-vasp.4.6
   LMAXPAW     = -100 max onsite density
   LMAXMIX     =    2 max onsite mixed and CHGCAR
   VOSKOWN=      0    Vosko Wilk Nusair interpolation
   ROPT   =   -0.00050  -0.00050  -0.00050  -0.00050
   ROPT   =   -0.00050
 Ionic relaxation
   EDIFFG = -.1E-01   stopping-criterion for IOM
   NSW    =    500    number of steps for IOM
   NBLOCK =      1;   KBLOCK =    500    inner block; outer block
   IBRION =      2    ionic relax: 0-MD 1-quasi-New 2-CG
   NFREE  =      1    steps in history (QN), initial steepest desc. (CG)
   ISIF   =      4    stress and relaxation
   IWAVPR =     11    prediction:  0-non 1-charg 2-wave 3-comb
   ISYM   =      0    0-nonsym 1-usesym 2-fastsym
   LCORR  =      T    Harris-Foulkes like correction to forces

   POTIM  = 0.5000    time-step for ionic-motion
   TEIN   =    0.0    initial temperature
   TEBEG  =    0.0;   TEEND  =   0.0 temperature during run
   SMASS  =  -3.00    Nose mass-parameter (am)
   estimated Nose-frequenzy (Omega)   =  0.10E-29 period in steps =****** mass=  -0.324E-26a.u.
   SCALEE = 1.0000    scale energy and forces
   NPACO  =    256;   APACO  = 16.0  distance and # of slots for P.C.
   PSTRESS=    0.0 pullay stress

  Mass of Ions in am
   POMASS =  12.01 58.93  1.00 14.00 16.00
  Ionic Valenz
   ZVAL   =   4.00  9.00  1.00  5.00  6.00
  Atomic Wigner-Seitz radii
  virtual crystal weights
   VCA    =   1.00  1.00  1.00  1.00  1.00
   NELECT =     604.0000    total number of electrons
   NUPDOWN=      -1.0000    fix difference up-down

 DOS related values:
   EMIN   =  10.00;   EMAX   =-10.00  energy-range for DOS
   EFERMI =   0.00
   ISMEAR =     0;   SIGMA  =   0.05  broadening in eV -4-tet -1-fermi 0-gaus

 Electronic relaxation 2 (details)
   IALGO  =     38    algorithm
   LDIAG  =      T    sub-space diagonalisation (order eigenvalues)
   LSUBROT=      F    optimize rotation matrix (better conditioning)
[...]
  110        set_charge                            0.958099                            1   3
  111          soft_charge                           0.907035                          1   4
  112            fftwav_mpi                            0.787967                      120   5
  113              fft3d_mpi                             0.707748                    120   6
  114                fftbas_plan_mpi                       0.707314                  120   7
  115                  dfftw_execute                         0.341862                360   8
  116                  map_forward                           0.300850                240   8
  117                    map_gather                            0.081755              120   9
  118                    m_alltoallv_z                         0.061633              120   9
  119                    map_scatter                           0.097088              120   9
  120            pw_charge                             0.079694                      120   5
  121            fft3d_mpi                             0.008322                        2   5
  122              fftbas_plan_mpi                       0.007399                      2   6
  123                dfftw_execute                         0.002748                    6   7
  124                map_backward                          0.003506                    4   7
  125                  map_gather                            0.001258                  4   8
  126                  m_alltoallv_z                         0.002065                  4   8
  127                  map_scatter                           0.000074                  4   8
  128          depsum                                0.004584                          1   4
  129          fft3d_mpi                             0.007828                          2   4
  130            fftbas_plan_mpi                       0.007489                        2   5
  131              dfftw_execute                         0.002174                      6   6
  132              map_backward                          0.003832                      4   6
  133                map_gather                            0.000665                    2   7
  134                m_alltoallv_z                         0.002839                    2   7
  135                map_scatter                           0.000293                    2   7
  136        forloc                                0.113805                            1   3
  137        fornlr                                3.988543                            1   3
  138          rspher_all                            0.088642                          3   4
  139          phaser                                0.246488                         18   4
  140          rpro_isp                              3.531278                         18   4
  141            fftwav_mpi                            2.774793                      432   5
  142              fft3d_mpi                             2.483130                    432   6
  143                fftbas_plan_mpi                       2.481520                  432   7
  144                  dfftw_execute                         1.196557               1296   8
  145                  map_forward                           1.049334                864   8
  146                    map_gather                            0.283716              432   9
  147                    m_alltoallv_z                         0.218774              432   9
  148                    map_scatter                           0.340531              432   9
  149            rpromu                                0.752089                      108   5
  150              crrexp_mul_wave                       0.378572                  67392   6
  151              rpromu_gemm                           0.245658                  16848   6
  152        fordep                                0.190265                            1   3
  153          setdij_                               0.189804                          6   4
  154        setdij_                               0.633034                           20   3
  155        set_dd_paw                            0.037209                            1   3
  156        strkin                                0.021294                            1   3
  157        strelo                                0.004825                            1   3
  158        strnlr                               12.062578                            1   3
  159          rspher_all                            0.262847                          9   4
  160          phaser                                0.741078                         54   4
  161          rpro_isp                             10.544866                         54   4
  162            fftwav_mpi                            8.326618                     1296   5
  163              fft3d_mpi                             7.474661                   1296   6
  164                fftbas_plan_mpi                       7.470201                 1296   7
  165                  dfftw_execute                         3.593391               3888   8
  166                  map_forward                           3.170695               2592   8
  167                    map_gather                            0.854842             1296   9
  168                    m_alltoallv_z                         0.659338             1296   9
  169                    map_scatter                           1.032823             1296   9
  170            rpromu                                2.208046                      324   5
  171              crrexp_mul_wave                       1.113164                 202176   6
  172              rpromu_gemm                           0.725462                  50544   6
  173        fft3d_mpi                             0.090946                           22   3
  174          fftbas_plan_mpi                       0.086582                         22   4
  175            dfftw_execute                         0.025423                       66   5
  176            map_forward                           0.020576                       20   5
  177              map_gather                            0.001197                     10   6
  178              m_alltoallv_z                         0.014785                     10   6
  179              map_scatter                           0.004425                     10   6
  180            map_backward                          0.023399                       24   5
  181              map_gather                            0.004091                     12   6
  182              m_alltoallv_z                         0.017160                     12   6
  183              map_scatter                           0.001872                     12   6
  184        forhar                                0.203659                            2   3
  185        strehar                               0.005639                            1   3
  186        chggra                                0.016621                            1   3
  187          fft3d_mpi                             0.013653                          3   4
  188            fftbas_plan_mpi                       0.013082                        3   5
  189              dfftw_execute                         0.003593                      9   6
  190              map_forward                           0.005541                      4   6
  191                map_gather                            0.000224                    2   7
  192                m_alltoallv_z                         0.004246                    2   7
  193                map_scatter                           0.000962                    2   7
  194              map_backward                          0.001879                      2   6
  195                map_gather                            0.000359                    1   7
  196                m_alltoallv_z                         0.001347                    1   7
  197                map_scatter                           0.000151                    1   7
  198        brmix                                 0.027915                            1   3
  199          brpre                                 0.000074                          2   4
  200          setg0                                 0.001407                          1   4
  201          broyd                                 0.022198                          1   4
  202            brget                                 0.001895                      224   5
  203            brsav                                 0.000462                       48   5

 Flat profile

 eddav                                 638.151702          48
 total_time                            368.369282           1
 dfftw_execute                         207.354349      223521
 redis_pw                              155.432467       67155
 orth1                                 110.615605       73035
 map_scatter                            63.957583       74685
 redis_proj                             54.178908       84552
 map_gather                             54.137992       74685
 m_alltoallv_z                          43.763143       74685
 fftbas_plan_mpi                        43.072506       74509
 fftwav_mpi                             42.292545       48834
 crrexp_mul_work_add                    34.293373     3790332
 racc0                                  31.997646       24297
 map_forward                            28.336971       98962
 vhamil                                 25.915613       24297
 rpro1                                  21.265305       17385
 lincom                                 18.377718         588
 crrexp_mul_wave                        16.649028     3004092
 phaser                                  8.929444         654
 w1_copy                                 7.794275       72891
 force_and_stress                        6.274641           1
 fftext_mpi                              5.943525       24297
 eccp                                    5.364353        6912
 kinhamil                                3.590187       24297
 pw_charge                               3.582300        5280
 setdij_                                 2.264987          72
 soft_charge                             2.077887          44
 apply_precond                           2.019337       17385
 set_charge                              1.696293          44
 overl                                   1.480973       41694
 set_dd_paw                              1.463858          46
 setup_precond                           1.248826        6912
 overl1                                  1.097911       24297
 rpromu_gemm                             1.076397       73008
 fft3d_mpi                               0.602285       74507
 rpromu                                  0.540401         468
 strnlr                                  0.513787           1
 map_backward                            0.513382       50052
 rspher_all                              0.399959          14
 hamiltmu                                0.361315       24297
 broyd                                   0.340131          44
 depsum                                  0.262496          44
 choleski                                0.252797          12
 orthch                                  0.248057           1
 forhar                                  0.203659           2
 raccmu_                                 0.150255       24297
 brmix                                   0.127548          44
 fornlr                                  0.122135           1
 forloc                                  0.113805           1
 w1_projall                              0.108719       17385
 setg0                                   0.065906          46
 brget                                   0.037681        5120
 truncate_high_frequency_w1              0.024646       31209
 strkin                                  0.021294           1
 rpro_isp                                0.016096          78
 brsav                                   0.011828        1174
 brgrid                                  0.011050           1
 strehar                                 0.005639           1
 brpre                                   0.005374          88
 strelo                                  0.004825           1
 chggra                                  0.002968           1
 fordep                                  0.000461           1
 redis_pw_over_bands                     0.000001           1
  summed up times    2019.13543009758

 Accumulative profile

 total_time                           2019.135430           1
 eddav                                1572.367879          48
 fft3d_mpi                             441.678258       74507
 fftbas_plan_mpi                       441.135926       74509
 fftwav_mpi                            341.779255       48834
 hamiltmu                              239.594696       24297
 dfftw_execute                         207.354349      223521
 redis_pw                              155.432467       67155
 kinhamil                              145.778583       24297
 fftext_mpi                            142.188396       24297
 map_forward                           134.367508       98962
 orth1                                 110.615605       73035
 raccmu_                                67.539185       24297
 racc0                                  66.291018       24297
 map_scatter                            63.957583       74685
 map_backward                           56.341564       50052
 redis_proj                             54.178908       84552
 map_gather                             54.137992       74685
 m_alltoallv_z                          43.763143       74685
 set_charge                             43.108219          44
 soft_charge                            40.796482          44
 w1_projall                             36.408221       17385
 rpro1                                  36.299502       17385
 crrexp_mul_work_add                    34.293373     3790332
 vhamil                                 25.915613       24297
 force_and_stress                       24.629073           1
 lincom                                 18.377718         588
 crrexp_mul_wave                        16.649028     3004092
 rpro_isp                               15.326393          78
 strnlr                                 12.062578           1
 phaser                                  8.929444         654
 w1_copy                                 7.794275       72891
 eccp                                    5.364353        6912
 fornlr                                  3.988543           1
 pw_charge                               3.582300        5280
 rpromu                                  3.231628         468
 setdij_                                 2.264987          72
 apply_precond                           2.019337       17385
 orthch                                  1.624946           1
 overl                                   1.480973       41694
 set_dd_paw                              1.463858          46
 setup_precond                           1.248826        6912
 overl1                                  1.097911       24297
 rpromu_gemm                             1.076397       73008
 brmix                                   0.588468          44
 rspher_all                              0.399959          14
 broyd                                   0.389640          44
 depsum                                  0.262496          44
 choleski                                0.252797          12
 forhar                                  0.203659           2
 fordep                                  0.190265           1
 forloc                                  0.113805           1
 setg0                                   0.065906          46
 brget                                   0.037681        5120
 truncate_high_frequency_w1              0.024646       31209
 strkin                                  0.021294           1
 chggra                                  0.016621           1
 brsav                                   0.011828        1174
 brgrid                                  0.011050           1
 strehar                                 0.005639           1
 brpre                                   0.005374          88
 strelo                                  0.004825           1
 redis_pw_over_bands                     0.000001           1

Profiling took   4.788338  2.715459  0.012329  0.011859 seconds
Profiling took   5.637383 seconds