 vasp.5.4.4.18Apr17-6-g9f103f2a35 (build May 22 2020 17:00:04) complex

 executed on           IFC15_impi date 2020.09.23  13:09:35

 INCAR:
 POTCAR:    PAW_PBE C 08Apr2002
 POTCAR:    PAW_PBE Co 02Aug2007
 POTCAR:    PAW_PBE H 15Jun2001
 POTCAR:    PAW_PBE N 08Apr2002
 POTCAR:    PAW_PBE O 08Apr2002

 POTCAR:    PAW_PBE C 08Apr2002
   VRHFIN =C: s2p2

   TITEL  = PAW_PBE C 08Apr2002
   POMASS =   12.011; ZVAL   =    4.000    mass and valenz
   ENMAX  =  400.000; ENMIN  =  300.000 eV

 POTCAR:    PAW_PBE Co 02Aug2007
   VRHFIN =Co: d8 s1

   TITEL  = PAW_PBE Co 02Aug2007
   POMASS =   58.933; ZVAL   =    9.000    mass and valenz
   ENMAX  =  267.968; ENMIN  =  200.976 eV

 POTCAR:    PAW_PBE H 15Jun2001
   VRHFIN =H: ultrasoft test

   TITEL  = PAW_PBE H 15Jun2001
   POMASS =    1.000; ZVAL   =    1.000    mass and valenz
   ENMAX  =  250.000; ENMIN  =  200.000 eV

 POTCAR:    PAW_PBE N 08Apr2002
   VRHFIN =N: s2p3

[...]

 POTCAR:    PAW_PBE O 08Apr2002
   VRHFIN =O: s2p4

   TITEL  = PAW_PBE O 08Apr2002
   POMASS =   16.000; ZVAL   =    6.000    mass and valenz
   ENMAX  =  400.000; ENMIN  =  300.000 eV

 Optimization of the real space projectors (new method)

 maximal supplied QI-value         = 25.13
 optimisation between [QCUT,QGAM] = [ 12.32, 24.88] = [ 42.47,173.37] Ry
 Optimized for a Real-space Cutoff    1.06 Angstroem

   l    n(q)    QCUT    max X(q) W(low)/X(q) W(high)/X(q)  e(spline)
   0      8    12.315   115.676    0.34E-03    0.18E-03    0.23E-06
   0      8    12.315    87.132    0.34E-03    0.18E-03    0.22E-06
   1      7    12.315     4.429    0.45E-03    0.12E-03    0.18E-06
   1      7    12.315     2.733    0.35E-03    0.97E-04    0.15E-06
 Optimization of the real space projectors (new method)

[...]

   l    n(q)    QCUT    max X(q) W(low)/X(q) W(high)/X(q)  e(spline)
   0      9    12.315    79.467    0.14E-03    0.22E-04    0.37E-06
   0      9    12.315    66.151    0.14E-03    0.23E-04    0.36E-06
   1      8    12.315    22.077    0.30E-03    0.54E-03    0.45E-06
   1      8    12.315    15.894    0.30E-03    0.55E-03    0.45E-06
 Optimization of the real space projectors (new method)

 maximal supplied QI-value         = 24.76
 optimisation between [QCUT,QGAM] = [ 12.38, 25.00] = [ 42.90,175.06] Ry
 Optimized for a Real-space Cutoff    1.13 Angstroem

   l    n(q)    QCUT    max X(q) W(low)/X(q) W(high)/X(q)  e(spline)
   0      8    12.378    20.381    0.16E-03    0.54E-05    0.27E-06
   0      8    12.378    15.268    0.17E-03    0.61E-05    0.29E-06
   1      8    12.378     5.964    0.38E-03    0.23E-03    0.28E-06
   1      8    12.378     5.382    0.33E-03    0.20E-03    0.25E-06
  PAW_PBE C 08Apr2002                   :
  PAW_PBE Co 02Aug2007                  :
  PAW_PBE H 15Jun2001                   :
  PAW_PBE N 08Apr2002                   :
  PAW_PBE O 08Apr2002                   :

 POSCAR: Co_D
  positions in direct lattice
  velocities in cartesian coordinates
 exchange correlation table for  LEXCH =        8
   RHO(1)=    0.500       N(1)  =     2000
   RHO(2)=  100.500       N(2)  =     4000

 ion  position               nearest neighbor table
   1  0.892  0.956  0.138- 107 1.08 117 1.34  65 1.40
   2  0.777  0.950  0.425- 112 1.09 118 1.36  65 1.40
   3  0.893  0.797  0.888- 116 1.08 119 1.34  66 1.40
   4  0.609  0.456  0.637- 110 1.08 120 1.34  67 1.40
   5  0.722  0.303  0.101- 111 1.09 121 1.36  68 1.40
   6  0.216  0.803  0.102- 115 1.09 122 1.36  69 1.40
   7  0.722  0.450  0.925- 101 1.09 123 1.36  67 1.40
   8  0.607  0.297  0.388- 113 1.08 124 1.34  68 1.40
   9  0.285  0.451  0.425- 114 1.09 125 1.36  70 1.40
  10  0.102  0.798  0.389- 104 1.08 126 1.34  69 1.40
  11  0.215  0.951  0.925- 105 1.09 127 1.36  71 1.40
  12  0.284  0.303  0.601- 102 1.09 128 1.36  72 1.40
  13  0.778  0.803  0.601- 108 1.09 129 1.36  66 1.40
  14  0.101  0.956  0.637- 109 1.08 130 1.34  71 1.40
  15  0.398  0.298  0.889- 106 1.08 131 1.34  72 1.40
  16  0.399  0.456  0.137- 103 1.08 132 1.34  70 1.40
  17  0.693  0.031  0.131- 141 1.23 133 1.42  33 1.48
  18  0.830  0.048  0.458- 142 1.23 133 1.41  34 1.48
  19  0.831  0.705  0.569- 143 1.23 134 1.41  35 1.48
  20  0.670  0.548  0.958- 144 1.23 135 1.41  36 1.48
  21  0.669  0.205  0.068- 145 1.23 136 1.41  37 1.48
  22  0.303  0.723  0.397- 146 1.23 137 1.42  38 1.48
  23  0.807  0.531  0.630- 147 1.23 135 1.42  39 1.48
  24  0.806  0.222  0.396- 148 1.23 136 1.42  40 1.48
  25  0.199  0.531  0.129- 149 1.23 138 1.42  41 1.48
  26  0.167  0.705  0.070- 150 1.23 137 1.41  42 1.48
  27  0.164  0.049  0.957- 151 1.23 139 1.41  43 1.48
  28  0.334  0.205  0.569- 152 1.23 140 1.41  44 1.48
  29  0.694  0.722  0.896- 153 1.23 134 1.42  45 1.48
  30  0.301  0.031  0.629- 154 1.23 139 1.42  46 1.48
  31  0.197  0.223  0.897- 155 1.23 140 1.42  47 1.48
  32  0.336  0.549  0.457- 156 1.23 138 1.41  48 1.48
  33  0.689  0.076  0.117-  49 1.39  73 1.41  17 1.48
  34  0.818  0.093  0.442-  50 1.39  73 1.41  18 1.48
  35  0.819  0.661  0.584-  51 1.39  74 1.41  19 1.48
  36  0.682  0.593  0.942-  52 1.39  75 1.41  20 1.48
  37  0.681  0.161  0.084-  53 1.39  76 1.41  21 1.48
  38  0.309  0.678  0.410-  54 1.39  77 1.41  22 1.48
  39  0.811  0.576  0.617-  55 1.39  75 1.41  23 1.48
  40  0.810  0.177  0.409-  56 1.39  76 1.41  24 1.48
  41  0.193  0.576  0.117-  57 1.39  78 1.41  25 1.48
  42  0.181  0.661  0.085-  58 1.39  77 1.41  26 1.48
  43  0.178  0.093  0.942-  59 1.39  79 1.41  27 1.48
  44  0.319  0.161  0.584-  60 1.39  80 1.41  28 1.48
  45  0.690  0.677  0.909-  61 1.39  74 1.41  29 1.48
  46  0.307  0.076  0.617-  62 1.39  79 1.41  30 1.48
  47  0.191  0.178  0.909-  63 1.39  80 1.41  31 1.48
  48  0.322  0.593  0.442-  64 1.39  78 1.41  32 1.48
  49  0.625  0.089  0.951-  88 1.09  33 1.39  53 1.40
  50  0.878  0.122  0.592-  99 1.09  34 1.39  56 1.40
  51  0.879  0.631  0.434-  93 1.09  35 1.39  55 1.40
  52  0.622  0.622  0.092-  90 1.09  36 1.39  61 1.40
  53  0.621  0.131  0.934-  98 1.09  37 1.39  49 1.40
  54  0.374  0.665  0.577-  96 1.09  38 1.39  64 1.40
  55  0.875  0.589  0.450-  86 1.09  39 1.39  51 1.40
  56  0.873  0.164  0.576-  87 1.09  40 1.39  50 1.40
  57  0.129  0.589  0.950-  95 1.09  41 1.39  58 1.40
  58  0.122  0.631  0.934-  91 1.09  42 1.39  57 1.40
  59  0.120  0.123  0.092-  92 1.09  43 1.39  63 1.40
  60  0.378  0.131  0.434-  85 1.09  44 1.39  62 1.40
[...]
 142  0.893  0.036  0.600-  18 1.23
 143  0.895  0.717  0.427-  19 1.23
 144  0.607  0.536  0.100-  20 1.23
 145  0.606  0.217  0.927-  21 1.23
 146  0.357  0.749  0.527-  22 1.23
 147  0.862  0.505  0.501-  23 1.23
 148  0.861  0.248  0.525-  24 1.23
 149  0.145  0.505  0.999-  25 1.23
 150  0.103  0.717  0.928-  26 1.23
 151  0.100  0.037  0.098-  27 1.23
 152  0.398  0.217  0.428-  28 1.23
 153  0.639  0.748  0.025-  29 1.23
 154  0.355  0.005  0.499-  30 1.23
 155  0.143  0.249  0.026-  31 1.23
 156  0.400  0.537  0.598-  32 1.23

IMPORTANT INFORMATION: All symmetrisations will be switched off!
NOSYMM: (Re-)initialisation of all symmetry stuff for point group C_1.

Automatic generation of k-mesh.
 generate k-points for:    3    1    4
Space group operators:
 irot       det(A)        alpha          n_x          n_y          n_z        tau_x        tau_y        tau_z
    1     1.000000     0.000001     1.000000     0.000000     0.000000     0.000000     0.000000     0.000000

 Subroutine IBZKPT returns following result:

 Found      7 irreducible k-points:

 Following reciprocal coordinates:
            Coordinates               Weight
  0.000000  0.000000  0.000000      1.000000
  0.333333  0.000000  0.000000      2.000000
 -0.000000 -0.000000  0.250000      2.000000
  0.333333 -0.000000  0.250000      2.000000
 -0.333333 -0.000000  0.250000      2.000000
 -0.000000 -0.000000  0.500000      1.000000
  0.333333 -0.000000  0.500000      2.000000

 Following cartesian coordinates:
            Coordinates               Weight
  0.000000  0.000000  0.000000      1.000000
  0.036864 -0.000003 -0.000007      2.000000
 -0.000001  0.002957  0.037527      2.000000
  0.036862  0.002954  0.037520      2.000000
 -0.036865  0.002959  0.037534      2.000000
 -0.000003  0.005913  0.075054      1.000000
  0.036861  0.005910  0.075047      2.000000

 SYSTEM =  flex_MOF
 POSCAR =  Co_D

 Startparameter for this run:
   NWRITE =      2    write-flag & timer
   PREC   = normal    normal or accurate (medium, high low for compatibility)
   ISTART =      0    job   : 0-new  1-cont  2-samecut
   ICHARG =      2    charge: 1-file 2-atom 10-const
   ISPIN  =      2    spin polarized calculation?
   LNONCOLLINEAR =      F non collinear calculations
   LSORBIT =      F    spin-orbit coupling
   INIWAV =      1    electr: 0-lowe 1-rand  2-diag
   LASPH  =      F    aspherical Exc in radial PAW
   METAGGA=      F    non-selfconsistent MetaGGA calc.

 Electronic Relaxation 1
   ENCUT  =  600.0 eV  44.10 Ry    6.64 a.u.  18.06 65.49 13.44*2*pi/ulx,y,z
   ENINI  =  600.0     initial cutoff
   ENAUG  =  644.9 eV  augmentation charge cutoff
   NELM   =     80;   NELMIN=  8; NELMDL= -5     # of ELM steps
   EDIFF  = 0.1E-05   stopping-criterion for ELM
   LREAL  =      T    real-space projection
   NLSPLINE    = F    spline interpolate recip. space projectors
   LCOMPAT=      F    compatible to vasp.4.4
   GGA_COMPAT  = T    GGA compatible to vasp.4.4-vasp.4.6
   LMAXPAW     = -100 max onsite density
   LMAXMIX     =    2 max onsite mixed and CHGCAR
   VOSKOWN=      0    Vosko Wilk Nusair interpolation
   ROPT   =   -0.00050  -0.00050  -0.00050  -0.00050
   ROPT   =   -0.00050
 Ionic relaxation
   EDIFFG = -.1E-01   stopping-criterion for IOM
   NSW    =    500    number of steps for IOM
   NBLOCK =      1;   KBLOCK =    500    inner block; outer block
   IBRION =      2    ionic relax: 0-MD 1-quasi-New 2-CG
   NFREE  =      1    steps in history (QN), initial steepest desc. (CG)
   ISIF   =      4    stress and relaxation
   IWAVPR =     11    prediction:  0-non 1-charg 2-wave 3-comb
   ISYM   =      0    0-nonsym 1-usesym 2-fastsym
   LCORR  =      T    Harris-Foulkes like correction to forces

   POTIM  = 0.5000    time-step for ionic-motion
   TEIN   =    0.0    initial temperature
   TEBEG  =    0.0;   TEEND  =   0.0 temperature during run
   SMASS  =  -3.00    Nose mass-parameter (am)
   estimated Nose-frequenzy (Omega)   =  0.10E-29 period in steps =****** mass=  -0.187E-26a.u.
   SCALEE = 1.0000    scale energy and forces
   NPACO  =    256;   APACO  = 16.0  distance and # of slots for P.C.
   PSTRESS=    0.0 pullay stress

  Mass of Ions in am
   POMASS =  12.01 58.93  1.00 14.00 16.00
  Ionic Valenz
   ZVAL   =   4.00  9.00  1.00  5.00  6.00
  Atomic Wigner-Seitz radii
  virtual crystal weights
   VCA    =   1.00  1.00  1.00  1.00  1.00
   NELECT =     604.0000    total number of electrons
   NUPDOWN=      -1.0000    fix difference up-down

 DOS related values:
   EMIN   =  10.00;   EMAX   =-10.00  energy-range for DOS
   EFERMI =   0.00
   ISMEAR =     0;   SIGMA  =   0.05  broadening in eV -4-tet -1-fermi 0-gaus

 Electronic relaxation 2 (details)
   IALGO  =     38    algorithm
[...]
  110        set_charge                            0.909374                            1   3
  111          soft_charge                           0.864085                          1   4
  112            fftwav_mpi                            0.734829                      140   5
  113              fft3d_mpi                             0.662064                    140   6
  114                fftbas_plan_mpi                       0.661541                  140   7
  115                  dfftw_execute                         0.310647                420   8
  116                  map_forward                           0.274378                280   8
  117                    map_gather                            0.071165              140   9
  118                    m_alltoallv_z                         0.061280              140   9
  119                    map_scatter                           0.089270              140   9
  120            pw_charge                             0.072162                      140   5
  121            fft3d_mpi                             0.007148                        2   5
  122              fftbas_plan_mpi                       0.006462                      2   6
  123                dfftw_execute                         0.002167                    6   7
  124                map_backward                          0.003005                    4   7
  125                  map_gather                            0.001011                  4   8
  126                  m_alltoallv_z                         0.001879                  4   8
  127                  map_scatter                           0.000066                  4   8
  128          depsum                                0.003487                          1   4
  129          fft3d_mpi                             0.007022                          2   4
  130            fftbas_plan_mpi                       0.006845                        2   5
  131              dfftw_execute                         0.001157                      6   6
  132              map_backward                          0.004181                      4   6
  133                map_gather                            0.000210                    2   7
  134                m_alltoallv_z                         0.003718                    2   7
  135                map_scatter                           0.000225                    2   7
  136        forloc                                0.084949                            1   3
  137        fornlr                                3.828995                            1   3
  138          rspher_all                            0.085239                          3   4
  139          phaser                                0.275822                         21   4
  140          rpro_isp                              3.424089                         21   4
  141            fftwav_mpi                            2.608538                      504   5
  142              fft3d_mpi                             2.347447                    504   6
  143                fftbas_plan_mpi                       2.345651                  504   7
  144                  dfftw_execute                         1.107063               1512   8
  145                  map_forward                           0.969427               1008   8
  146                    map_gather                            0.248711              504   9
  147                    m_alltoallv_z                         0.216488              504   9
  148                    map_scatter                           0.316383              504   9
  149            rpromu                                0.809960                      126   5
  150              crrexp_mul_wave                       0.397491                  78624   6
  151              rpromu_gemm                           0.266254                  19656   6
  152        fordep                                0.177429                            1   3
  153          setdij_                               0.176875                          6   4
  154        setdij_                               0.590580                           20   3
  155        set_dd_paw                            0.030339                            1   3
  156        strkin                                0.019795                            1   3
  157        strelo                                0.004173                            1   3
  158        strnlr                               11.422433                            1   3
  159          rspher_all                            0.251779                          9   4
  160          phaser                                0.829241                         63   4
  161          rpro_isp                             10.237745                         63   4
  162            fftwav_mpi                            7.752986                     1512   5
  163              fft3d_mpi                             6.982257                   1512   6
  164                fftbas_plan_mpi                       6.976996                 1512   7
  165                  dfftw_execute                         3.312335               4536   8
  166                  map_forward                           2.866014               3024   8
  167                    map_gather                            0.728228             1512   9
  168                    m_alltoallv_z                         0.639165             1512   9
  169                    map_scatter                           0.942450             1512   9
  170            rpromu                                2.471420                      378   5
  171              crrexp_mul_wave                       1.224555                 235872   6
  172              rpromu_gemm                           0.812904                  58968   6
  173        fft3d_mpi                             0.067430                           22   3
  174          fftbas_plan_mpi                       0.065387                         22   4
  175            dfftw_execute                         0.013430                       66   5
  176            map_forward                           0.017167                       20   5
  177              map_gather                            0.000785                     10   6
  178              m_alltoallv_z                         0.014596                     10   6
  179              map_scatter                           0.001622                     10   6
  180            map_backward                          0.018884                       24   5
  181              map_gather                            0.001547                     12   6
  182              m_alltoallv_z                         0.015725                     12   6
  183              map_scatter                           0.001422                     12   6
  184        forhar                                0.153135                            2   3
  185        strehar                               0.004328                            1   3
  186        chggra                                0.013503                            1   3
  187          fft3d_mpi                             0.010302                          3   4
  188            fftbas_plan_mpi                       0.009971                        3   5
  189              dfftw_execute                         0.001771                      9   6
  190              map_forward                           0.004486                      4   6
  191                map_gather                            0.000146                    2   7
  192                m_alltoallv_z                         0.004014                    2   7
  193                map_scatter                           0.000293                    2   7
  194              map_backward                          0.001463                      2   6
  195                map_gather                            0.000124                    1   7
  196                m_alltoallv_z                         0.001209                    1   7
  197                map_scatter                           0.000111                    1   7
  198        brmix                                 0.016878                            1   3
  199          brpre                                 0.000089                          2   4
  200          setg0                                 0.001127                          1   4
  201          broyd                                 0.013503                          1   4
  202            brget                                 0.001774                      267   5
  203            brsav                                 0.000268                       48   5

 Flat profile

 eddav                                1068.543376          68
 total_time                            332.492453           1
 dfftw_execute                         285.714901      390135
 redis_pw                              229.548829      118857
 orth1                                 162.708139      128517
 redis_proj                             90.081833      150230
 m_alltoallv_z                          89.731784      130303
 map_scatter                            85.271865      130303
 fftbas_plan_mpi                        74.163659      130047
 map_gather                             71.534365      130303
 crrexp_mul_work_add                    56.972646     6674148
 fftwav_mpi                             56.906450       85286
 racc0                                  55.567027       42783
 map_forward                            38.531288      172426
 rpro1                                  37.166857       31359
 vhamil                                 33.388299       42783
 crrexp_mul_wave                        26.531117     5232708
 lincom                                 25.175999         966
 phaser                                 13.747120        1043
 w1_copy                                10.449643      128349
 fftext_mpi                              7.972719       42783
 force_and_stress                        7.799670           1
 eccp                                    6.779143       11424
 pw_charge                               4.691183        8960
 kinhamil                                4.625891       42783
 soft_charge                             4.035050          64
 setdij_                                 2.796323          92
 apply_precond                           2.779350       31359
 overl                                   2.456927       74156
 set_charge                              2.229801          64
 set_dd_paw                              1.999119          66
 overl1                                  1.742057       42783
 setup_precond                           1.642623       11424
 rpromu_gemm                             1.196695       85176
 map_backward                            0.857107       87664
 fft3d_mpi                               0.747611      130045
 rpromu                                  0.631220         546
 hamiltmu                                0.594891       42783
 broyd                                   0.491268          64
 rspher_all                              0.390483          14
 choleski                                0.293864          14
 raccmu_                                 0.273058       42783
 orthch                                  0.237756           1
 depsum                                  0.230843          64
 w1_projall                              0.195074       31359
 forhar                                  0.153135           2
 brmix                                   0.142380          64
 strnlr                                  0.103668           1
 forloc                                  0.084949           1
 setg0                                   0.072916          66
 brget                                   0.071717       11429
 truncate_high_frequency_w1              0.044689       54207
 fornlr                                  0.043845           1
 brsav                                   0.023932        2586
 rpro_isp                                0.020700          91
 strkin                                  0.019795           1
 brpre                                   0.006762         128
 strehar                                 0.004328           1
 strelo                                  0.004173           1
 chggra                                  0.003201           1
 fordep                                  0.000554           1
 brgrid                                  0.000361           1
 redis_pw_over_bands                     0.000000           1
  summed up times    2902.71847701073

 Accumulative profile

 total_time                           2902.718477           1
 eddav                                2473.183053          68
 fft3d_mpi                             646.490376      130045
 fftbas_plan_mpi                       645.804969      130047
 fftwav_mpi                            505.111054       85286
 hamiltmu                              352.841148       42783
 dfftw_execute                         285.714901      390135
 redis_pw                              229.548829      118857
 map_forward                           210.909532      172426
 kinhamil                              204.303172       42783
 fftext_mpi                            199.677281       42783
 orth1                                 162.708139      128517
 raccmu_                               114.554787       42783
 racc0                                 112.539672       42783
 redis_proj                             90.081833      150230
 m_alltoallv_z                          89.731784      130303
 map_scatter                            85.271865      130303
 map_backward                           75.016877       87664
 map_gather                             71.534365      130303
 w1_projall                             62.136965       31359
 rpro1                                  61.941891       31359
 set_charge                             59.505339          64
 crrexp_mul_work_add                    56.972646     6674148
 soft_charge                            56.444583          64
 vhamil                                 33.388299       42783
 crrexp_mul_wave                        26.531117     5232708
 lincom                                 25.175999         966
 force_and_stress                       25.123012           1
 rpro_isp                               14.881298          91
 phaser                                 13.747120        1043
 strnlr                                 11.422433           1
 w1_copy                                10.449643      128349
 eccp                                    6.779143       11424
 pw_charge                               4.691183        8960
 fornlr                                  3.828995           1
 rpromu                                  3.583998         546
 setdij_                                 2.796323          92
 apply_precond                           2.779350       31359
 overl                                   2.456927       74156
 set_dd_paw                              1.999119          66
 overl1                                  1.742057       42783
 orthch                                  1.653193           1
 setup_precond                           1.642623       11424
 rpromu_gemm                             1.196695       85176
 brmix                                   0.808974          64
 broyd                                   0.586917          64
 rspher_all                              0.390483          14
 choleski                                0.293864          14
 depsum                                  0.230843          64
 fordep                                  0.177429           1
 forhar                                  0.153135           2
 forloc                                  0.084949           1
 setg0                                   0.072916          66
 brget                                   0.071717       11429
 truncate_high_frequency_w1              0.044689       54207
 brsav                                   0.023932        2586
 strkin                                  0.019795           1
 chggra                                  0.013503           1
 brpre                                   0.006762         128
 strehar                                 0.004328           1
 strelo                                  0.004173           1
 brgrid                                  0.000361           1
 redis_pw_over_bands                     0.000000           1

Profiling took   8.023529  4.671295  0.012233  0.011863 seconds
Profiling took   9.419021 seconds