 vasp.6.0.8 29Jun18 (build Mar 14 2019 11:44:20) complex

 executed on             LinuxIFC date 2021.01.19  15:57:57

 INCAR:
 POTCAR:    PAW_PBE C 08Apr2002
 POTCAR:    PAW_PBE Zn 06Sep2000
 POTCAR:    PAW_PBE H 15Jun2001
 POTCAR:    PAW_PBE N 08Apr2002
 POTCAR:    PAW_PBE O 08Apr2002
 POTCAR:    PAW_PBE C 08Apr2002
   VRHFIN =C: s2p2

   TITEL  = PAW_PBE C 08Apr2002
   POMASS =   12.011; ZVAL   =    4.000    mass and valenz
   ENMAX  =  400.000; ENMIN  =  300.000 eV

 POTCAR:    PAW_PBE Zn 06Sep2000
   VRHFIN =Zn: d10 p2

   TITEL  = PAW_PBE Zn 06Sep2000
   POMASS =   65.390; ZVAL   =   12.000    mass and valenz
   ENMAX  =  276.723; ENMIN  =  207.542 eV

 POTCAR:    PAW_PBE H 15Jun2001
   VRHFIN =H: ultrasoft test

   TITEL  = PAW_PBE H 15Jun2001
   POMASS =    1.000; ZVAL   =    1.000    mass and valenz
   ENMAX  =  250.000; ENMIN  =  200.000 eV

 POTCAR:    PAW_PBE N 08Apr2002
   VRHFIN =N: s2p3

[...]

 POTCAR:    PAW_PBE O 08Apr2002
   VRHFIN =O: s2p4

   TITEL  = PAW_PBE O 08Apr2002
   POMASS =   16.000; ZVAL   =    6.000    mass and valenz
   ENMAX  =  400.000; ENMIN  =  300.000 eV

 Optimization of the real space projectors (new method)

 maximal supplied QI-value         = 25.13
 optimisation between [QCUT,QGAM] = [ 12.32, 24.88] = [ 42.47,173.37] Ry
 Optimized for a Real-space Cutoff    1.06 Angstroem

   l    n(q)    QCUT    max X(q) W(low)/X(q) W(high)/X(q)  e(spline)
   0      8    12.315   115.676    0.34E-03    0.18E-03    0.23E-06
   0      8    12.315    87.132    0.34E-03    0.18E-03    0.22E-06
   1      7    12.315     4.429    0.45E-03    0.12E-03    0.18E-06
   1      7    12.315     2.733    0.35E-03    0.97E-04    0.15E-06
 Optimization of the real space projectors (new method)

[...]

   l    n(q)    QCUT    max X(q) W(low)/X(q) W(high)/X(q)  e(spline)
   0      9    12.315    79.467    0.14E-03    0.22E-04    0.37E-06
   0      9    12.315    66.151    0.14E-03    0.23E-04    0.36E-06
   1      8    12.315    22.077    0.30E-03    0.54E-03    0.45E-06
   1      8    12.315    15.894    0.30E-03    0.55E-03    0.45E-06
 Optimization of the real space projectors (new method)

 maximal supplied QI-value         = 24.76
 optimisation between [QCUT,QGAM] = [ 12.38, 25.00] = [ 42.90,175.06] Ry
 Optimized for a Real-space Cutoff    1.13 Angstroem

   l    n(q)    QCUT    max X(q) W(low)/X(q) W(high)/X(q)  e(spline)
   0      8    12.378    20.381    0.16E-03    0.54E-05    0.27E-06
   0      8    12.378    15.268    0.17E-03    0.61E-05    0.29E-06
   1      8    12.378     5.964    0.38E-03    0.23E-03    0.28E-06
   1      8    12.378     5.382    0.33E-03    0.20E-03    0.25E-06
  PAW_PBE C 08Apr2002                   :
  PAW_PBE Zn 06Sep2000                  :
  PAW_PBE H 15Jun2001                   :
  PAW_PBE N 08Apr2002                   :
  PAW_PBE O 08Apr2002                   :

 POSCAR: Zn_H
  positions in direct lattice
  velocities in cartesian coordinates
 exchange correlation table for  LEXCH =        8
   RHO(1)=    0.500       N(1)  =     2000
   RHO(2)=  100.500       N(2)  =     4000

 ion  position               nearest neighbor table
   1  0.931  0.967  0.148- 107 1.08 117 1.34  65 1.40
   2  0.903  0.957  0.431- 112 1.08 118 1.35  65 1.40
   3  0.931  0.789  0.897- 116 1.08 119 1.34  66 1.40
   4  0.569  0.467  0.648- 110 1.08 120 1.34  67 1.40
   5  0.596  0.298  0.114- 111 1.08 121 1.35  68 1.40
   6  0.096  0.798  0.113- 115 1.08 122 1.35  69 1.40
   7  0.596  0.457  0.931- 101 1.08 123 1.35  67 1.40
   8  0.569  0.289  0.397- 113 1.08 124 1.34  68 1.40
   9  0.403  0.457  0.432- 114 1.08 125 1.35  70 1.40
  10  0.069  0.788  0.397- 104 1.08 126 1.34  69 1.40
  11  0.096  0.957  0.931- 105 1.08 127 1.35  71 1.40
  12  0.403  0.298  0.614- 102 1.08 128 1.35  72 1.40
  13  0.903  0.798  0.613- 108 1.08 129 1.35  66 1.40
  14  0.069  0.967  0.648- 109 1.08 130 1.34  71 1.40
  15  0.431  0.289  0.897- 106 1.08 131 1.34  72 1.40
  16  0.431  0.467  0.149- 103 1.08 132 1.34  70 1.40
  17  0.823  0.024  0.113- 141 1.23 133 1.42  33 1.48
  18  0.841  0.067  0.455- 142 1.23 133 1.42  34 1.49
  19  0.840  0.689  0.589- 143 1.23 134 1.42  35 1.49
  20  0.659  0.567  0.955- 144 1.23 135 1.42  36 1.49
  21  0.659  0.189  0.090- 145 1.23 136 1.42  37 1.49
  22  0.177  0.732  0.432- 146 1.23 137 1.42  38 1.48
  23  0.677  0.524  0.613- 147 1.23 135 1.42  39 1.48
  24  0.677  0.232  0.432- 148 1.23 136 1.42  40 1.48
  25  0.323  0.524  0.113- 149 1.23 138 1.42  41 1.48
  26  0.159  0.689  0.090- 150 1.23 137 1.42  42 1.49
  27  0.159  0.067  0.955- 151 1.23 139 1.42  43 1.49
  28  0.341  0.189  0.590- 152 1.23 140 1.42  44 1.49
  29  0.823  0.732  0.932- 153 1.23 134 1.42  45 1.48
  30  0.177  0.023  0.613- 154 1.23 139 1.42  46 1.48
  31  0.323  0.232  0.932- 155 1.23 140 1.42  47 1.48
  32  0.341  0.567  0.456- 156 1.23 138 1.42  48 1.49
  33  0.781  0.066  0.111-  49 1.39  73 1.41  17 1.48
  34  0.799  0.109  0.445-  50 1.39  73 1.41  18 1.49
  35  0.799  0.647  0.600-  51 1.39  74 1.41  19 1.49
  36  0.701  0.609  0.945-  52 1.39  75 1.41  20 1.49
  37  0.701  0.147  0.100-  53 1.39  76 1.41  21 1.49
  38  0.219  0.690  0.434-  54 1.39  77 1.41  22 1.48
  39  0.719  0.566  0.611-  55 1.39  75 1.41  23 1.48
  40  0.719  0.190  0.434-  56 1.39  76 1.41  24 1.48
  41  0.281  0.566  0.112-  57 1.39  78 1.41  25 1.48
  42  0.201  0.647  0.100-  58 1.39  77 1.41  26 1.49
  43  0.201  0.109  0.945-  59 1.39  79 1.41  27 1.49
  44  0.299  0.147  0.600-  60 1.39  80 1.41  28 1.49
  45  0.781  0.690  0.933-  61 1.39  74 1.41  29 1.48
  46  0.219  0.066  0.611-  62 1.39  79 1.41  30 1.48
  47  0.281  0.190  0.934-  63 1.39  80 1.41  31 1.48
  48  0.299  0.609  0.445-  64 1.39  78 1.41  32 1.49
  49  0.752  0.065  0.946-  88 1.09  33 1.39  53 1.41
  50  0.788  0.151  0.604-  99 1.09  34 1.39  56 1.41
  51  0.788  0.605  0.441-  93 1.09  35 1.39  55 1.41
  52  0.712  0.651  0.104-  90 1.09  36 1.39  61 1.41
  53  0.712  0.105  0.941-  98 1.09  37 1.39  49 1.41
  54  0.248  0.691  0.599-  96 1.09  38 1.39  64 1.41
  55  0.748  0.565  0.446-  86 1.09  39 1.39  51 1.41
  56  0.748  0.191  0.599-  87 1.09  40 1.39  50 1.41
  57  0.252  0.565  0.947-  95 1.09  41 1.39  58 1.41
  58  0.212  0.605  0.941-  91 1.09  42 1.39  57 1.41
  59  0.212  0.150  0.104-  92 1.09  43 1.39  63 1.41
  60  0.288  0.105  0.441-  85 1.09  44 1.39  62 1.41
[...]
 142  0.865  0.066  0.602-  18 1.23
 143  0.865  0.690  0.442-  19 1.23
 144  0.635  0.566  0.103-  20 1.23
 145  0.635  0.190  0.942-  21 1.23
 146  0.166  0.768  0.573-  22 1.23
 147  0.666  0.487  0.472-  23 1.23
 148  0.666  0.268  0.573-  24 1.23
 149  0.334  0.487  0.973-  25 1.23
 150  0.135  0.690  0.942-  26 1.23
 151  0.135  0.066  0.103-  27 1.23
 152  0.365  0.190  0.442-  28 1.23
 153  0.833  0.768  0.073-  29 1.23
 154  0.166  0.987  0.472-  30 1.23
 155  0.334  0.268  0.073-  31 1.23
 156  0.365  0.566  0.603-  32 1.23

IMPORTANT INFORMATION: All symmetrisations will be switched off!
NOSYMM: (Re-)initialisation of all symmetry stuff for point group C_1.

                                     Primitive cell

  volume of cell :    4328.8266

  direct lattice vectors                    reciprocal lattice vectors
    24.724126913 -0.001851745 -0.001685155     0.040446322 -0.000002847 -0.000003223
     0.001383516 24.415247746 -4.207936947     0.000003242  0.041329090  0.002153067
     0.000550034 -0.376970029  7.236108366     0.000011305  0.024033664  0.139447879

  length of vectors
    24.724127039 24.775210549  7.245920990     0.040446322  0.041385135  0.141503810

  position of ions in fractional coordinates (direct lattice)
     0.930867849  0.967221352  0.147851647
     0.903393529  0.957420305  0.430942993
     0.930723703  0.788548044  0.896568811
     0.568888614  0.467261135  0.648437809
     0.596448603  0.298379277  0.113976847
     0.096406444  0.798240223  0.113436238
     0.596410765  0.457433589  0.931448302
     0.569030292  0.288578722  0.397123632
     0.403351942  0.457410358  0.431565202
     0.068919170  0.788484715  0.396568112
     0.096449932  0.957307559  0.930906120
     0.403345689  0.298342936  0.614041947
     0.903273165  0.798361940  0.613463042
     0.068979024  0.967176861  0.647897024
     0.430758324  0.288596136  0.897258365
     0.430866473  0.467286425  0.148596293
     0.823187586  0.023602229  0.112942797
     0.840733593  0.066704369  0.455028354
     0.840412045  0.689202636  0.589470828
     0.659086367  0.566706552  0.955326608
     0.659286431  0.189221363  0.089795579
     0.176608193  0.732140525  0.431818685
     0.676581162  0.523560115  0.613214894
     0.676781917  0.232264302  0.431966307
     0.323135282  0.523533729  0.113498195
     0.159190143  0.689043831  0.089660906
     0.159158059  0.066569677  0.955125477
     0.340565738  0.189151244  0.589962689
     0.822984200  0.732267019  0.931654059
     0.176708086  0.023481413  0.613030344
     0.323064575  0.232190423  0.932115958
     0.340608701  0.566673200  0.455617775
     0.780944632  0.066082268  0.111269817
     0.799023902  0.109118068  0.444913568
     0.798695999  0.646806558  0.599708548
     0.700770625  0.609124322  0.945020773
     0.701019161  0.146829734  0.099883667
     0.218897529  0.689717612  0.433654488
     0.718805227  0.566046963  0.611364341
     0.719079879  0.189834858  0.433580086
     0.280853777  0.565964271  0.111695764
     0.200916219  0.646662619  0.099961274
     0.200866746  0.108986399  0.945049961
     0.298859365  0.146733940  0.600057647
     0.780680638  0.689851341  0.933395465
     0.218954773  0.065964177  0.611382148
     0.280791344  0.189734650  0.933732378
     0.298867607  0.609046649  0.445358268
     0.751914819  0.065237765  0.946284946
     0.788024415  0.150631654  0.603949058
     0.787656948  0.605286821  0.440731946
     0.711777250  0.650665561  0.103968173
     0.712052510  0.105333298  0.940824547
     0.247905066  0.690608399  0.598715802
     0.747809317  0.565188100  0.446311090
     0.748136997  0.190704348  0.598525340
     0.251838011  0.565069016  0.946645732
     0.211971562  0.605139758  0.941001478
     0.211861986  0.150497340  0.104091247
     0.287843222  0.105235726  0.440988863
[...]
     0.864994657  0.065913691  0.602464595
     0.864610892  0.689991561  0.441925901
     0.634872593  0.565914039  0.102836837
     0.635057400  0.190018604  0.942315882
     0.166108870  0.768273130  0.572731934
     0.666154653  0.487352648  0.472436778
     0.666311015  0.268379995  0.572951271
     0.333615778  0.487371008  0.972649608
     0.134990624  0.689807612  0.942095331
     0.134898401  0.065761126  0.102553267
     0.364791390  0.189953047  0.442483783
     0.833496532  0.768373005  0.072622955
     0.166284397  0.987312381  0.472142047
     0.333532958  0.268304271  0.073118450
     0.364855459  0.565914532  0.603101913

  ion indices of the primitive-cell ions
   primitive index   ion index
                 1           1
                 2           2
                 3           3
                 4           4
                 5           5
                 6           6
                 7           7
                 8           8
[...]

 FORCES acting on ions
    electron-ion (+dipol)            ewald-force                    non-local-force                 convergence-correction
   0.747E+02 -.244E+03 0.143E+03   -.766E+02 0.248E+03 -.146E+03   0.195E+01 -.340E+01 0.360E+01   -.129E-04 -.374E-05 0.255E-04
   0.243E+03 -.111E+03 -.157E+03   -.247E+03 0.113E+03 0.159E+03   0.420E+01 -.227E+01 -.284E+01   0.874E-05 0.159E-04 -.231E-04
   0.749E+02 0.244E+03 -.143E+03   -.769E+02 -.247E+03 0.146E+03   0.195E+01 0.339E+01 -.360E+01   -.141E-04 0.236E-05 -.256E-04
   -.746E+02 -.244E+03 0.143E+03   0.766E+02 0.248E+03 -.146E+03   -.195E+01 -.340E+01 0.360E+01   0.134E-04 -.360E-05 0.266E-04
   -.243E+03 0.111E+03 0.157E+03   0.247E+03 -.113E+03 -.159E+03   -.421E+01 0.226E+01 0.284E+01   -.832E-05 -.152E-04 0.230E-04
   -.243E+03 0.111E+03 0.157E+03   0.247E+03 -.113E+03 -.159E+03   -.421E+01 0.226E+01 0.284E+01   -.886E-05 -.153E-04 0.217E-04
   -.243E+03 -.111E+03 -.156E+03   0.248E+03 0.113E+03 0.159E+03   -.421E+01 -.226E+01 -.284E+01   -.924E-05 0.157E-04 -.248E-04
   -.749E+02 0.244E+03 -.143E+03   0.769E+02 -.248E+03 0.146E+03   -.195E+01 0.339E+01 -.360E+01   0.133E-04 0.419E-05 -.242E-04
   0.243E+03 -.110E+03 -.157E+03   -.247E+03 0.113E+03 0.159E+03   0.421E+01 -.226E+01 -.284E+01   0.821E-05 0.161E-04 -.234E-04
   -.746E+02 0.244E+03 -.143E+03   0.766E+02 -.248E+03 0.146E+03   -.195E+01 0.339E+01 -.360E+01   0.121E-04 0.433E-05 -.247E-04
   -.243E+03 -.110E+03 -.156E+03   0.248E+03 0.113E+03 0.159E+03   -.421E+01 -.226E+01 -.284E+01   -.786E-05 0.164E-04 -.230E-04
   0.243E+03 0.111E+03 0.157E+03   -.247E+03 -.113E+03 -.159E+03   0.420E+01 0.226E+01 0.284E+01   0.822E-05 -.158E-04 0.237E-04
   0.243E+03 0.110E+03 0.156E+03   -.247E+03 -.113E+03 -.159E+03   0.421E+01 0.226E+01 0.284E+01   0.764E-05 -.171E-04 0.244E-04
   -.749E+02 -.244E+03 0.143E+03   0.769E+02 0.248E+03 -.146E+03   -.195E+01 -.340E+01 0.360E+01   0.137E-04 -.280E-05 0.253E-04
   0.750E+02 0.244E+03 -.143E+03   -.770E+02 -.247E+03 0.146E+03   0.195E+01 0.339E+01 -.360E+01   -.136E-04 0.366E-05 -.259E-04
   0.746E+02 -.244E+03 0.143E+03   -.766E+02 0.248E+03 -.146E+03   0.195E+01 -.340E+01 0.360E+01   -.139E-04 -.351E-05 0.250E-04
   0.149E+03 -.709E+02 0.896E+01   -.152E+03 0.738E+02 -.984E+01   0.335E+01 -.286E+01 0.878E+00   -.146E-04 0.301E-04 -.852E-05
   0.494E+02 -.146E+03 -.119E+01   -.522E+02 0.149E+03 0.742E+00   0.282E+01 -.343E+01 0.438E+00   -.175E-04 0.228E-04 0.125E-04
   0.496E+02 0.145E+03 0.108E+01   -.524E+02 -.149E+03 -.625E+00   0.282E+01 0.342E+01 -.443E+00   -.189E-04 -.214E-04 -.921E-05
   -.495E+02 -.146E+03 -.111E+01   0.523E+02 0.149E+03 0.651E+00   -.281E+01 -.342E+01 0.442E+00   0.189E-04 0.226E-04 0.937E-05
   -.495E+02 0.146E+03 0.114E+01   0.523E+02 -.149E+03 -.688E+00   -.282E+01 0.342E+01 -.437E+00   0.198E-04 -.221E-04 -.972E-05
   -.148E+03 0.708E+02 -.885E+01   0.152E+03 -.737E+02 0.972E+01   -.335E+01 0.286E+01 -.873E+00   0.154E-04 -.303E-04 0.907E-05
   -.149E+03 -.708E+02 0.903E+01   0.152E+03 0.737E+02 -.990E+01   -.335E+01 -.286E+01 0.882E+00   0.134E-04 0.298E-04 -.596E-05
   -.149E+03 0.706E+02 -.881E+01   0.152E+03 -.735E+02 0.968E+01   -.335E+01 0.286E+01 -.868E+00   0.135E-04 -.262E-04 0.111E-04
   0.149E+03 -.707E+02 0.893E+01   -.152E+03 0.736E+02 -.981E+01   0.335E+01 -.286E+01 0.877E+00   -.137E-04 0.280E-04 -.890E-05
   -.493E+02 0.146E+03 0.105E+01   0.521E+02 -.149E+03 -.596E+00   -.282E+01 0.342E+01 -.443E+00   0.185E-04 -.245E-04 -.147E-04
   -.497E+02 -.146E+03 -.121E+01   0.525E+02 0.149E+03 0.771E+00   -.282E+01 -.343E+01 0.437E+00   0.184E-04 0.240E-04 0.125E-04
   0.495E+02 0.146E+03 0.108E+01   -.523E+02 -.149E+03 -.624E+00   0.282E+01 0.342E+01 -.441E+00   -.196E-04 -.237E-04 -.111E-04
   0.149E+03 0.705E+02 -.883E+01   -.152E+03 -.734E+02 0.970E+01   0.335E+01 0.285E+01 -.873E+00   -.142E-04 -.304E-04 0.489E-05
   -.149E+03 -.707E+02 0.899E+01   0.152E+03 0.735E+02 -.986E+01   -.335E+01 -.286E+01 0.878E+00   0.152E-04 0.316E-04 -.613E-05
   0.149E+03 0.707E+02 -.886E+01   -.152E+03 -.735E+02 0.973E+01   0.335E+01 0.286E+01 -.872E+00   -.141E-04 -.288E-04 0.874E-05
   0.495E+02 -.146E+03 -.117E+01   -.523E+02 0.149E+03 0.725E+00   0.282E+01 -.342E+01 0.439E+00   -.173E-04 0.222E-04 0.138E-04
   0.818E+02 0.228E+02 0.382E+02   -.822E+02 -.229E+02 -.390E+02   0.325E+00 0.106E+00 0.769E+00   -.385E-04 0.517E-04 -.147E-04
   -.302E+02 -.841E+02 -.428E+02   0.302E+02 0.846E+02 0.435E+02   0.136E-01 -.509E+00 -.623E+00   -.430E-04 0.419E-04 0.156E-05
   -.300E+02 0.836E+02 0.429E+02   0.300E+02 -.842E+02 -.435E+02   0.129E-01 0.508E+00 0.623E+00   -.433E-04 -.408E-04 -.207E-05
   0.301E+02 -.841E+02 -.428E+02   -.301E+02 0.846E+02 0.434E+02   -.137E-01 -.508E+00 -.622E+00   0.428E-04 0.416E-04 0.170E-05
   0.300E+02 0.837E+02 0.429E+02   -.300E+02 -.843E+02 -.435E+02   -.127E-01 0.508E+00 0.625E+00   0.443E-04 -.406E-04 -.114E-05
   -.817E+02 -.229E+02 -.382E+02   0.820E+02 0.230E+02 0.390E+02   -.327E+00 -.105E+00 -.771E+00   0.388E-04 -.516E-04 0.141E-04
   -.819E+02 0.228E+02 0.382E+02   0.822E+02 -.229E+02 -.390E+02   -.325E+00 0.107E+00 0.770E+00   0.387E-04 0.514E-04 -.147E-04
   -.818E+02 -.230E+02 -.382E+02   0.822E+02 0.231E+02 0.390E+02   -.327E+00 -.106E+00 -.770E+00   0.383E-04 -.491E-04 0.142E-04
   0.819E+02 0.229E+02 0.382E+02   -.823E+02 -.230E+02 -.389E+02   0.326E+00 0.108E+00 0.770E+00   -.390E-04 0.514E-04 -.143E-04
   0.302E+02 0.839E+02 0.428E+02   -.302E+02 -.844E+02 -.434E+02   -.136E-01 0.508E+00 0.623E+00   0.429E-04 -.408E-04 -.217E-05
   0.300E+02 -.839E+02 -.429E+02   -.300E+02 0.844E+02 0.435E+02   -.132E-01 -.508E+00 -.624E+00   0.428E-04 0.405E-04 0.142E-05
   -.302E+02 0.839E+02 0.428E+02   0.301E+02 -.844E+02 -.435E+02   0.128E-01 0.507E+00 0.624E+00   -.435E-04 -.407E-04 -.102E-05
   0.819E+02 -.232E+02 -.382E+02   -.822E+02 0.233E+02 0.389E+02   0.329E+00 -.107E+00 -.772E+00   -.397E-04 -.508E-04 0.147E-04
   -.820E+02 0.229E+02 0.382E+02   0.823E+02 -.231E+02 -.390E+02   -.326E+00 0.107E+00 0.770E+00   0.400E-04 0.526E-04 -.140E-04
   0.817E+02 -.229E+02 -.382E+02   -.821E+02 0.230E+02 0.390E+02   0.327E+00 -.106E+00 -.772E+00   -.389E-04 -.519E-04 0.136E-04
   -.301E+02 -.839E+02 -.428E+02   0.301E+02 0.844E+02 0.435E+02   0.128E-01 -.508E+00 -.624E+00   -.434E-04 0.405E-04 0.159E-05
   0.125E+03 0.129E+03 0.120E+03   -.124E+03 -.131E+03 -.122E+03   -.313E+00 0.153E+01 0.196E+01   -.952E-05 0.446E-04 0.964E-05
   -.129E+03 -.134E+03 -.128E+03   0.130E+03 0.134E+03 0.130E+03   -.102E+01 -.236E+00 -.214E+01   -.265E-04 0.113E-05 -.100E-04
   -.129E+03 0.134E+03 0.128E+03   0.130E+03 -.134E+03 -.130E+03   -.101E+01 0.232E+00 0.214E+01   -.282E-04 -.478E-06 0.113E-04
   0.129E+03 -.134E+03 -.128E+03   -.130E+03 0.134E+03 0.130E+03   0.101E+01 -.238E+00 -.214E+01   0.276E-04 0.105E-05 -.115E-04
   0.129E+03 0.134E+03 0.128E+03   -.130E+03 -.134E+03 -.130E+03   0.101E+01 0.230E+00 0.214E+01   0.286E-04 -.231E-06 0.109E-04
   -.125E+03 -.129E+03 -.120E+03   0.124E+03 0.131E+03 0.122E+03   0.316E+00 -.153E+01 -.196E+01   0.954E-05 -.441E-04 -.931E-05
   -.125E+03 0.129E+03 0.120E+03   0.124E+03 -.131E+03 -.122E+03   0.314E+00 0.153E+01 0.196E+01   0.110E-04 0.451E-04 0.937E-05
   -.125E+03 -.130E+03 -.120E+03   0.125E+03 0.131E+03 0.122E+03   0.313E+00 -.153E+01 -.196E+01   0.104E-04 -.422E-04 -.932E-05
   0.125E+03 0.129E+03 0.120E+03   -.125E+03 -.131E+03 -.122E+03   -.314E+00 0.153E+01 0.195E+01   -.107E-04 0.447E-04 0.960E-05
   0.129E+03 0.134E+03 0.128E+03   -.130E+03 -.134E+03 -.130E+03   0.101E+01 0.234E+00 0.214E+01   0.266E-04 0.128E-05 0.118E-04
   0.129E+03 -.134E+03 -.128E+03   -.130E+03 0.134E+03 0.130E+03   0.101E+01 -.235E+00 -.214E+01   0.272E-04 -.124E-05 -.119E-04
   -.129E+03 0.134E+03 0.128E+03   0.130E+03 -.134E+03 -.130E+03   -.101E+01 0.231E+00 0.214E+01   -.274E-04 0.639E-06 0.124E-04
[...]
   -.147E+03 0.248E+03 0.288E+03   0.174E+03 -.245E+03 -.336E+03   -.265E+02 -.325E+01 0.477E+02   -.236E-04 -.349E-04 -.562E-04
   0.148E+03 -.249E+03 -.288E+03   -.174E+03 0.245E+03 0.336E+03   0.265E+02 0.325E+01 -.477E+02   0.224E-04 0.353E-04 0.572E-04
   0.148E+03 0.248E+03 0.288E+03   -.174E+03 -.245E+03 -.336E+03   0.265E+02 -.326E+01 0.477E+02   0.228E-04 -.343E-04 -.582E-04
   -.219E+03 -.155E+03 -.238E+03   0.208E+03 0.192E+03 0.276E+03   0.113E+02 -.367E+02 -.389E+02   0.937E-05 -.318E-04 0.346E-04
   -.220E+03 0.156E+03 0.238E+03   0.209E+03 -.193E+03 -.276E+03   0.113E+02 0.368E+02 0.388E+02   0.863E-05 0.324E-04 -.313E-04
   -.219E+03 -.155E+03 -.238E+03   0.208E+03 0.192E+03 0.277E+03   0.113E+02 -.367E+02 -.389E+02   0.950E-05 -.311E-04 0.338E-04
   0.220E+03 0.156E+03 0.238E+03   -.208E+03 -.192E+03 -.276E+03   -.113E+02 0.368E+02 0.388E+02   -.832E-05 0.289E-04 -.347E-04
   0.148E+03 0.249E+03 0.288E+03   -.174E+03 -.245E+03 -.336E+03   0.265E+02 -.322E+01 0.477E+02   0.221E-04 -.360E-04 -.596E-04
   0.148E+03 -.249E+03 -.288E+03   -.174E+03 0.245E+03 0.336E+03   0.265E+02 0.327E+01 -.477E+02   0.249E-04 0.367E-04 0.558E-04
   -.148E+03 0.248E+03 0.288E+03   0.174E+03 -.245E+03 -.336E+03   -.265E+02 -.326E+01 0.477E+02   -.251E-04 -.360E-04 -.559E-04
   0.219E+03 -.155E+03 -.238E+03   -.208E+03 0.192E+03 0.277E+03   -.114E+02 -.367E+02 -.389E+02   -.979E-05 -.326E-04 0.311E-04
   -.220E+03 0.156E+03 0.238E+03   0.209E+03 -.193E+03 -.277E+03   0.113E+02 0.368E+02 0.388E+02   0.104E-04 0.351E-04 -.318E-04
   0.219E+03 -.155E+03 -.238E+03   -.208E+03 0.192E+03 0.277E+03   -.113E+02 -.367E+02 -.389E+02   -.959E-05 -.326E-04 0.332E-04
   -.148E+03 -.249E+03 -.288E+03   0.174E+03 0.246E+03 0.336E+03   -.265E+02 0.322E+01 -.477E+02   -.206E-04 0.344E-04 0.613E-04
   0.927E-01 -.314E+00 0.135E+00   0.881E-12 0.171E-12 0.568E-13   -.771E-01 0.337E+00 -.109E+00   0.129E-05 0.253E-04 0.158E-04

 POSITION                                       TOTAL-FORCE (eV/Angst)
     23.01631     23.55749     -3.00170        -0.000299     -0.003447     -0.003360
     22.33718     23.21153     -0.91194         0.004527      0.000942      0.002461
     23.01292     18.91289      3.16794        -0.001525      0.003991      0.001063
     14.06628     11.16280      2.72500         0.000480     -0.003508     -0.004365
     14.74715      7.24093     -0.43182        -0.004403     -0.001020     -0.002968
      2.38473     19.44629     -2.53827        -0.005325     -0.000748     -0.000978
     14.74688     10.81612      4.81420        -0.004329      0.001729      0.003042
     14.06939      6.89496      1.65835         0.001557      0.002724      0.004511
      9.97339     11.00435      1.19742         0.005002      0.001089      0.002603
      1.70528     19.10143     -0.44840         0.000477      0.003677      0.004776
      2.38648     23.02180      2.70769        -0.004459      0.001320      0.003639
      9.97312      7.05189      3.18719         0.005553     -0.000964     -0.002608
     22.33408     19.25927      1.07811         0.006397     -0.000119     -0.002822
      1.70714     23.36950      0.61832         0.001075     -0.002233     -0.004730
     10.65102      6.70711      5.27754        -0.000555      0.004017      0.002301
     10.65353     11.35210     -0.89178         0.000361     -0.004751     -0.004523
     20.35269      0.53215      0.71656        -0.001466      0.005142     -0.000430
     20.78675      1.45551      3.01053         0.001236     -0.001164      0.001276
     20.77973     16.60328      1.36394         0.001223      0.001548      0.001056
     16.29664     13.47493      4.52707         0.002656      0.000799     -0.006119
     16.30059      4.58482     -0.14757        -0.000623      0.001232      0.002963
      4.36773     17.71228      0.04359        -0.000189     -0.001513      0.005818
     16.72894     12.55043      2.23304         0.001579      0.006092      0.000231
     16.73340      5.50670      2.14726         0.000284     -0.003588      0.003766
      7.99002     12.73882     -1.38226        -0.001444      0.004289     -0.001432
      3.93684     16.78908     -2.25093        -0.001806      0.001198      0.001279
      3.93566      1.26497      6.63100        -0.000737     -0.000829      0.002445
      8.42078      4.39515      3.47252         0.000463      0.001152      0.003286
     20.34909     17.52575      3.65883        -0.000605     -0.003964      0.003143
      4.36932      0.34188      4.33685         0.002477      0.006224     -0.000755
      7.98832      5.31701      5.76731         0.001177     -0.001653      0.004181
      8.42229     13.66308      0.91180        -0.000145     -0.001163     -0.001629
     19.30833      1.57002      0.52577        -0.001195      0.001909     -0.004365
     19.75556      2.49495      2.75893         0.001712     -0.004046     -0.000358
     19.74829     15.56439      1.61649         0.001847      0.003320      0.000355
     17.32730     14.51438      4.27394        -0.001479     -0.002614      0.001328
     17.33234      3.54593      0.10374        -0.002129      0.002880      0.001514
      5.41324     16.67575      0.23531        -0.002055     -0.000472      0.002563
     17.77295     13.58838      2.04080         0.000911      0.003377     -0.003630
     17.77912      4.47009      2.33741        -0.002007     -0.001322      0.002495
      6.94471     13.77553     -1.57377        -0.001844      0.005233     -0.001122
      4.96843     15.75037     -1.99812        -0.003014      0.002421     -0.000656
      4.96693      2.30430      6.37954        -0.001276     -0.003352     -0.000353
      7.38957      3.35579      3.72413         0.002186      0.001507      0.000596
     19.30311     16.48958      3.84998         0.002069     -0.002460      0.000532
      5.41389      1.37965      4.14609         0.000746      0.002743     -0.001944
      6.94310      4.27991      5.95772         0.000879     -0.002739      0.001611
      7.39033     14.70158      0.65933         0.001987     -0.003539      0.000137
     18.59105      1.23468      6.57164        -0.002621      0.005840     -0.002809
     19.48376      3.44858      3.73506        -0.002230     -0.002569     -0.000069
     19.47521     14.61063      0.64085        -0.002265      0.000262     -0.002720
     17.59903     15.84565     -1.98683         0.001144     -0.003918      0.000661
     17.60554      2.21576      6.36347         0.002512     -0.000010     -0.000664
      6.13052     16.63522      1.42592         0.002649     -0.005967      0.003597
     18.48996     13.62958      0.85002         0.001527      0.005839     -0.002736
     18.49763      4.42908      3.52726         0.001957     -0.003740      0.005882
      6.22778     13.43898      4.47183        -0.000738      0.004104     -0.004407
      5.24217     14.41952      4.26244        -0.000177      0.002601     -0.002257
      5.23837      3.63480      0.11958         0.002022     -0.001927      0.000776
      7.11706      2.40258      2.74773         0.000059      0.001960     -0.002215
[...]
     21.38666      1.38059      4.08068        -0.000829     -0.002718     -0.003584
     21.37795     16.67812      0.29293         0.000390      0.001197     -0.000693
     15.69751     13.77699     -1.63826        -0.003064     -0.002469      0.002017
     15.70202      4.28295      6.01804        -0.001668      0.001035     -0.000732
      4.10827     18.54137      0.91123         0.002239     -0.007821      0.002946
     16.47103     11.71951      1.36673         0.000761      0.001684     -0.009001
     16.47464      6.33534      3.01549         0.001243     -0.005434      0.005000
      8.24957     11.53201      4.98681        -0.000637      0.001057     -0.008494
      3.33900     16.48643      3.91421        -0.001176      0.001565      0.000301
      3.33539      1.56666      0.46514         0.002299     -0.002855     -0.003635
      9.01965      4.47027      2.40194         0.001557      0.001499     -0.003351
     20.60858     18.73110     -2.70916        -0.000567     -0.004060      0.004163
      4.11286     23.92719     -0.73836         0.000854      0.001017     -0.008978
      8.24672      6.52253     -0.60048        -0.000578     -0.006387      0.002923
      9.02185     13.58892      1.98216        -0.000366     -0.002995     -0.001198
    total drift:                                0.015619      0.022663      0.026414

  FREE ENERGIE OF THE ION-ELECTRON SYSTEM (eV)
  free  energy   TOTEN  =     -1161.55977663 eV

  energy  without entropy=    -1161.55977663  energy(sigma->0) =    -1161.55977663

 Quasi-Newton relaxation of ions (Broydens 2nd method)
  g(Force)  = 0.256E-03   g(Stress)= 0.127E-04

 Reset! Starting new Quasi-Newton update for ions

 reached required accuracy - stopping structural energy minimisation
 writing wavefunctions