 vasp.5.4.4.18Apr17-6-g9f103f2a35 (build May 22 2020 17:00:04) complex

 executed on           IFC15_impi date 2020.09.22  13:10:36

 INCAR:
 POTCAR:    PAW_PBE C 08Apr2002
 POTCAR:    PAW_PBE Co 02Aug2007
 POTCAR:    PAW_PBE H 15Jun2001
 POTCAR:    PAW_PBE N 08Apr2002
 POTCAR:    PAW_PBE O 08Apr2002

 POTCAR:    PAW_PBE C 08Apr2002
   VRHFIN =C: s2p2

   TITEL  = PAW_PBE C 08Apr2002
   POMASS =   12.011; ZVAL   =    4.000    mass and valenz
   ENMAX  =  400.000; ENMIN  =  300.000 eV

 POTCAR:    PAW_PBE Co 02Aug2007
   VRHFIN =Co: d8 s1

   TITEL  = PAW_PBE Co 02Aug2007
   POMASS =   58.933; ZVAL   =    9.000    mass and valenz
   ENMAX  =  267.968; ENMIN  =  200.976 eV

 POTCAR:    PAW_PBE H 15Jun2001
   VRHFIN =H: ultrasoft test

   TITEL  = PAW_PBE H 15Jun2001
   POMASS =    1.000; ZVAL   =    1.000    mass and valenz
   ENMAX  =  250.000; ENMIN  =  200.000 eV

 POTCAR:    PAW_PBE N 08Apr2002
   VRHFIN =N: s2p3

[...]

 POTCAR:    PAW_PBE O 08Apr2002
   VRHFIN =O: s2p4

   TITEL  = PAW_PBE O 08Apr2002
   POMASS =   16.000; ZVAL   =    6.000    mass and valenz
   ENMAX  =  400.000; ENMIN  =  300.000 eV

 Optimization of the real space projectors (new method)

 maximal supplied QI-value         = 25.13
 optimisation between [QCUT,QGAM] = [ 12.32, 24.88] = [ 42.47,173.37] Ry
 Optimized for a Real-space Cutoff    1.06 Angstroem

   l    n(q)    QCUT    max X(q) W(low)/X(q) W(high)/X(q)  e(spline)
   0      8    12.315   115.676    0.34E-03    0.18E-03    0.23E-06
   0      8    12.315    87.132    0.34E-03    0.18E-03    0.22E-06
   1      7    12.315     4.429    0.45E-03    0.12E-03    0.18E-06
   1      7    12.315     2.733    0.35E-03    0.97E-04    0.15E-06
 Optimization of the real space projectors (new method)

[...]

   l    n(q)    QCUT    max X(q) W(low)/X(q) W(high)/X(q)  e(spline)
   0      9    12.315    79.467    0.14E-03    0.22E-04    0.37E-06
   0      9    12.315    66.151    0.14E-03    0.23E-04    0.36E-06
   1      8    12.315    22.077    0.30E-03    0.54E-03    0.45E-06
   1      8    12.315    15.894    0.30E-03    0.55E-03    0.45E-06
 Optimization of the real space projectors (new method)

 maximal supplied QI-value         = 24.76
 optimisation between [QCUT,QGAM] = [ 12.38, 25.00] = [ 42.90,175.06] Ry
 Optimized for a Real-space Cutoff    1.13 Angstroem

   l    n(q)    QCUT    max X(q) W(low)/X(q) W(high)/X(q)  e(spline)
   0      8    12.378    20.381    0.16E-03    0.54E-05    0.27E-06
   0      8    12.378    15.268    0.17E-03    0.61E-05    0.29E-06
   1      8    12.378     5.964    0.38E-03    0.23E-03    0.28E-06
   1      8    12.378     5.382    0.33E-03    0.20E-03    0.25E-06
  PAW_PBE C 08Apr2002                   :
  PAW_PBE Co 02Aug2007                  :
  PAW_PBE H 15Jun2001                   :
  PAW_PBE N 08Apr2002                   :
  PAW_PBE O 08Apr2002                   :

 POSCAR: Co_C
  positions in direct lattice
  velocities in cartesian coordinates
 exchange correlation table for  LEXCH =        8
   RHO(1)=    0.500       N(1)  =     2000
   RHO(2)=  100.500       N(2)  =     4000

 ion  position               nearest neighbor table
   1  0.902  0.958  0.141- 107 1.08 117 1.34  65 1.40
   2  0.800  0.951  0.432- 112 1.09 118 1.36  65 1.40
   3  0.903  0.798  0.908- 116 1.08 119 1.34  66 1.40
   4  0.598  0.458  0.637- 110 1.08 120 1.34  67 1.40
   5  0.699  0.305  0.114- 111 1.09 121 1.35  68 1.40
   6  0.189  0.805  0.117- 115 1.09 122 1.36  69 1.40
   7  0.700  0.451  0.929- 101 1.09 123 1.36  67 1.40
   8  0.596  0.298  0.405- 113 1.08 124 1.34  68 1.40
   9  0.312  0.452  0.429- 114 1.09 125 1.36  70 1.40
  10  0.087  0.798  0.409- 104 1.08 126 1.34  69 1.40
  11  0.188  0.952  0.932- 105 1.09 127 1.36  71 1.40
  12  0.310  0.304  0.613- 102 1.09 128 1.36  72 1.40
  13  0.801  0.805  0.616- 108 1.09 129 1.36  66 1.40
  14  0.086  0.958  0.640- 109 1.08 130 1.34  71 1.40
  15  0.412  0.298  0.905- 106 1.08 131 1.34  72 1.40
  16  0.414  0.458  0.137- 103 1.08 132 1.34  70 1.40
  17  0.716  0.032  0.133- 141 1.23 133 1.42  33 1.48
  18  0.844  0.050  0.459- 142 1.23 133 1.41  34 1.48
  19  0.846  0.706  0.588- 143 1.23 134 1.41  35 1.48
  20  0.656  0.549  0.957- 144 1.23 135 1.41  36 1.48
  21  0.654  0.206  0.086- 145 1.23 136 1.41  37 1.48
  22  0.274  0.724  0.416- 146 1.23 137 1.42  38 1.48
  23  0.783  0.532  0.631- 147 1.23 135 1.42  39 1.48
  24  0.781  0.224  0.412- 148 1.23 136 1.42  40 1.48
  25  0.228  0.532  0.128- 149 1.23 138 1.42  41 1.48
  26  0.147  0.706  0.090- 150 1.23 137 1.41  42 1.48
  27  0.146  0.050  0.957- 151 1.23 139 1.41  43 1.48
  28  0.352  0.205  0.588- 152 1.23 140 1.41  44 1.48
  29  0.718  0.724  0.914- 153 1.23 134 1.42  45 1.48
  30  0.273  0.032  0.632- 154 1.23 139 1.42  46 1.48
  31  0.225  0.224  0.914- 155 1.23 140 1.42  47 1.48
  32  0.354  0.550  0.454- 156 1.23 138 1.41  48 1.48
  33  0.700  0.077  0.126-  49 1.39  73 1.42  17 1.48
  34  0.825  0.094  0.446-  50 1.39  73 1.42  18 1.48
  35  0.827  0.661  0.600-  51 1.39  74 1.42  19 1.48
  36  0.675  0.594  0.944-  52 1.39  75 1.42  20 1.48
  37  0.672  0.161  0.100-  53 1.39  76 1.42  21 1.48
  38  0.295  0.680  0.421-  54 1.39  77 1.42  22 1.48
  39  0.800  0.577  0.625-  55 1.39  75 1.42  23 1.48
  40  0.798  0.179  0.419-  56 1.39  76 1.42  24 1.48
  41  0.207  0.577  0.123-  57 1.39  78 1.42  25 1.48
  42  0.171  0.661  0.101-  58 1.39  77 1.42  26 1.48
  43  0.169  0.095  0.944-  59 1.39  79 1.42  27 1.48
  44  0.329  0.161  0.601-  60 1.39  80 1.42  28 1.48
  45  0.702  0.679  0.920-  61 1.39  74 1.42  29 1.48
  46  0.294  0.076  0.625-  62 1.39  79 1.42  30 1.48
  47  0.205  0.180  0.920-  63 1.39  80 1.42  31 1.48
  48  0.332  0.595  0.443-  64 1.39  78 1.42  32 1.48
  49  0.632  0.089  0.964-  88 1.09  33 1.39  53 1.41
  50  0.880  0.124  0.594-  99 1.09  34 1.39  56 1.40
  51  0.881  0.632  0.451-  93 1.09  35 1.39  55 1.41
  52  0.621  0.624  0.093-  90 1.09  36 1.39  61 1.40
  53  0.618  0.131  0.951-  98 1.09  37 1.39  49 1.41
  54  0.365  0.667  0.582-  96 1.09  38 1.39  64 1.41
  55  0.867  0.589  0.463-  86 1.09  39 1.39  51 1.41
  56  0.866  0.166  0.581-  87 1.09  40 1.39  50 1.40
  57  0.137  0.589  0.962-  95 1.09  41 1.39  58 1.41
  58  0.119  0.631  0.951-  91 1.09  42 1.39  57 1.41
  59  0.117  0.125  0.093-  92 1.09  43 1.39  63 1.41
  60  0.381  0.131  0.452-  85 1.09  44 1.39  62 1.41
[...]
 142  0.907  0.038  0.598-  18 1.23
 143  0.908  0.718  0.449-  19 1.23
 144  0.593  0.538  0.096-  20 1.23
 145  0.591  0.217  0.947-  21 1.23
 146  0.315  0.751  0.552-  22 1.23
 147  0.827  0.505  0.497-  23 1.23
 148  0.825  0.251  0.546-  24 1.23
 149  0.187  0.505  0.993-  25 1.23
 150  0.083  0.717  0.952-  26 1.23
 151  0.081  0.039  0.095-  27 1.23
 152  0.417  0.217  0.450-  28 1.23
 153  0.675  0.750  0.048-  29 1.23
 154  0.315  0.005  0.498-  30 1.23
 155  0.184  0.251  0.048-  31 1.23
 156  0.419  0.539  0.593-  32 1.23

IMPORTANT INFORMATION: All symmetrisations will be switched off!
NOSYMM: (Re-)initialisation of all symmetry stuff for point group C_1.

Automatic generation of k-mesh.
 generate k-points for:    3    1    4
Space group operators:
 irot       det(A)        alpha          n_x          n_y          n_z        tau_x        tau_y        tau_z
    1     1.000000     0.000000     1.000000     0.000000     0.000000     0.000000     0.000000     0.000000

 Subroutine IBZKPT returns following result:

 Found      7 irreducible k-points:

 Following reciprocal coordinates:
            Coordinates               Weight
  0.000000  0.000000  0.000000      1.000000
  0.333333  0.000000 -0.000000      2.000000
  0.000000 -0.000000  0.250000      2.000000
  0.333333 -0.000000  0.250000      2.000000
 -0.333333 -0.000000  0.250000      2.000000
  0.000000 -0.000000  0.500000      1.000000
  0.333333 -0.000000  0.500000      2.000000

 Following cartesian coordinates:
            Coordinates               Weight
  0.000000  0.000000  0.000000      1.000000
  0.031993  0.000006  0.000020      2.000000
  0.000026  0.002853  0.038407      2.000000
  0.032020  0.002859  0.038427      2.000000
 -0.031967  0.002846  0.038387      2.000000
  0.000053  0.005705  0.076814      1.000000
  0.032046  0.005712  0.076834      2.000000

 SYSTEM =  flex_MOF
 POSCAR =  Co_C

 Startparameter for this run:
   NWRITE =      2    write-flag & timer
   PREC   = normal    normal or accurate (medium, high low for compatibility)
   ISTART =      0    job   : 0-new  1-cont  2-samecut
   ICHARG =      2    charge: 1-file 2-atom 10-const
   ISPIN  =      2    spin polarized calculation?
   LNONCOLLINEAR =      F non collinear calculations
   LSORBIT =      F    spin-orbit coupling
   INIWAV =      1    electr: 0-lowe 1-rand  2-diag
   LASPH  =      F    aspherical Exc in radial PAW
   METAGGA=      F    non-selfconsistent MetaGGA calc.

 Electronic Relaxation 1
   ENCUT  =  600.0 eV  44.10 Ry    6.64 a.u.  20.81 65.29 13.12*2*pi/ulx,y,z
   ENINI  =  600.0     initial cutoff
   ENAUG  =  644.9 eV  augmentation charge cutoff
   NELM   =     80;   NELMIN=  8; NELMDL= -5     # of ELM steps
   EDIFF  = 0.1E-05   stopping-criterion for ELM
   LREAL  =      T    real-space projection
   NLSPLINE    = F    spline interpolate recip. space projectors
   LCOMPAT=      F    compatible to vasp.4.4
   GGA_COMPAT  = T    GGA compatible to vasp.4.4-vasp.4.6
   LMAXPAW     = -100 max onsite density
   LMAXMIX     =    2 max onsite mixed and CHGCAR
   VOSKOWN=      0    Vosko Wilk Nusair interpolation
   ROPT   =   -0.00050  -0.00050  -0.00050  -0.00050
   ROPT   =   -0.00050
 Ionic relaxation
   EDIFFG = -.1E-01   stopping-criterion for IOM
   NSW    =    500    number of steps for IOM
   NBLOCK =      1;   KBLOCK =    500    inner block; outer block
   IBRION =      2    ionic relax: 0-MD 1-quasi-New 2-CG
   NFREE  =      1    steps in history (QN), initial steepest desc. (CG)
   ISIF   =      4    stress and relaxation
   IWAVPR =     11    prediction:  0-non 1-charg 2-wave 3-comb
   ISYM   =      0    0-nonsym 1-usesym 2-fastsym
   LCORR  =      T    Harris-Foulkes like correction to forces

   POTIM  = 0.5000    time-step for ionic-motion
   TEIN   =    0.0    initial temperature
   TEBEG  =    0.0;   TEEND  =   0.0 temperature during run
   SMASS  =  -3.00    Nose mass-parameter (am)
   estimated Nose-frequenzy (Omega)   =  0.10E-29 period in steps =****** mass=  -0.248E-26a.u.
   SCALEE = 1.0000    scale energy and forces
   NPACO  =    256;   APACO  = 16.0  distance and # of slots for P.C.
   PSTRESS=    0.0 pullay stress

  Mass of Ions in am
   POMASS =  12.01 58.93  1.00 14.00 16.00
  Ionic Valenz
   ZVAL   =   4.00  9.00  1.00  5.00  6.00
  Atomic Wigner-Seitz radii
  virtual crystal weights
   VCA    =   1.00  1.00  1.00  1.00  1.00
   NELECT =     604.0000    total number of electrons
   NUPDOWN=      -1.0000    fix difference up-down

 DOS related values:
   EMIN   =  10.00;   EMAX   =-10.00  energy-range for DOS
   EFERMI =   0.00
   ISMEAR =     0;   SIGMA  =   0.05  broadening in eV -4-tet -1-fermi 0-gaus

 Electronic relaxation 2 (details)
   IALGO  =     38    algorithm
[...]
  110        set_charge                            0.981475                            1   3
  111          soft_charge                           0.933770                          1   4
  112            fftwav_mpi                            0.815811                      140   5
  113              fft3d_mpi                             0.732291                    140   6
  114                fftbas_plan_mpi                       0.731706                  140   7
  115                  dfftw_execute                         0.333490                420   8
  116                  map_forward                           0.320356                280   8
  117                    map_gather                            0.086132              140   9
  118                    m_alltoallv_z                         0.068883              140   9
  119                    map_scatter                           0.104546              140   9
  120            pw_charge                             0.085026                      140   5
  121            fft3d_mpi                             0.007220                        2   5
  122              fftbas_plan_mpi                       0.006494                      2   6
  123                dfftw_execute                         0.002385                    6   7
  124                map_backward                          0.003016                    4   7
  125                  map_gather                            0.001224                  4   8
  126                  m_alltoallv_z                         0.001682                  4   8
  127                  map_scatter                           0.000066                  4   8
  128          depsum                                0.003459                          1   4
  129          fft3d_mpi                             0.007963                          2   4
  130            fftbas_plan_mpi                       0.007739                        2   5
  131              dfftw_execute                         0.001224                      6   6
  132              map_backward                          0.004925                      4   6
  133                map_gather                            0.000232                    2   7
  134                m_alltoallv_z                         0.004052                    2   7
  135                map_scatter                           0.000604                    2   7
  136        forloc                                0.100448                            1   3
  137        fornlr                                4.183827                            1   3
  138          rspher_all                            0.086642                          3   4
  139          phaser                                0.284368                         21   4
  140          rpro_isp                              3.786453                         21   4
  141            fftwav_mpi                            2.924370                      504   5
  142              fft3d_mpi                             2.608182                    504   6
  143                fftbas_plan_mpi                       2.606171                  504   7
  144                  dfftw_execute                         1.199116               1512   8
  145                  map_forward                           1.131929               1008   8
  146                    map_gather                            0.301946              504   9
  147                    m_alltoallv_z                         0.245239              504   9
  148                    map_scatter                           0.367673              504   9
  149            rpromu                                0.857725                      126   5
  150              crrexp_mul_wave                       0.428987                  78624   6
  151              rpromu_gemm                           0.278741                  19656   6
  152        fordep                                0.274417                            1   3
  153          setdij_                               0.273883                          6   4
  154        setdij_                               0.616644                           20   3
  155        set_dd_paw                            0.030357                            1   3
  156        strkin                                0.022717                            1   3
  157        strelo                                0.004587                            1   3
  158        strnlr                               12.953906                            1   3
  159          rspher_all                            0.258159                          9   4
  160          phaser                                0.855482                         63   4
  161          rpro_isp                             11.266166                         63   4
  162            fftwav_mpi                            8.684223                     1512   5
  163              fft3d_mpi                             7.805415                   1512   6
  164                fftbas_plan_mpi                       7.799853                 1512   7
  165                  dfftw_execute                         3.601755               4536   8
  166                  map_forward                           3.377981               3024   8
  167                    map_gather                            0.905305             1512   9
  168                    m_alltoallv_z                         0.725332             1512   9
  169                    map_scatter                           1.100616             1512   9
  170            rpromu                                2.565472                      378   5
  171              crrexp_mul_wave                       1.291014                 235872   6
  172              rpromu_gemm                           0.839470                  58968   6
  173        fft3d_mpi                             0.072163                           22   3
  174          fftbas_plan_mpi                       0.070019                         22   4
  175            dfftw_execute                         0.014125                       66   5
  176            map_forward                           0.017721                       20   5
  177              map_gather                            0.001378                     10   6
  178              m_alltoallv_z                         0.014516                     10   6
  179              map_scatter                           0.001664                     10   6
  180            map_backward                          0.022377                       24   5
  181              map_gather                            0.001499                     12   6
  182              m_alltoallv_z                         0.017726                     12   6
  183              map_scatter                           0.002956                     12   6
  184        forhar                                0.188156                            2   3
  185        strehar                               0.005030                            1   3
  186        chggra                                0.013571                            1   3
  187          fft3d_mpi                             0.010426                          3   4
  188            fftbas_plan_mpi                       0.010157                        3   5
  189              dfftw_execute                         0.001902                      9   6
  190              map_forward                           0.004403                      4   6
  191                map_gather                            0.000275                    2   7
  192                m_alltoallv_z                         0.003788                    2   7
  193                map_scatter                           0.000307                    2   7
  194              map_backward                          0.001746                      2   6
  195                map_gather                            0.000128                    1   7
  196                m_alltoallv_z                         0.001398                    1   7
  197                map_scatter                           0.000202                    1   7
  198        brmix                                 0.018166                            1   3
  199          brpre                                 0.000076                          2   4
  200          setg0                                 0.001274                          1   4
  201          broyd                                 0.014074                          1   4
  202            brget                                 0.001720                      255   5
  203            brsav                                 0.000344                       46   5

 Flat profile

 eddav                                 759.526061          51
 total_time                            365.419716           1
 dfftw_execute                         216.289799      272862
 redis_pw                              165.803190       82180
 orth1                                 127.433652       89460
 map_scatter                            69.803968       91144
 map_gather                             62.222236       91144
 redis_proj                             57.503086      103390
 m_alltoallv_z                          57.411756       91144
 fftbas_plan_mpi                        50.728266       90956
 fftwav_mpi                             49.883599       59724
 crrexp_mul_work_add                    41.378132     4643184
 racc0                                  38.965217       29764
 map_forward                            33.380289      120826
 vhamil                                 27.788673       29764
 rpro1                                  25.488306       21196
 lincom                                 21.243533         728
 crrexp_mul_wave                        19.717906     3647280
 phaser                                 10.912748         805
 w1_copy                                 8.410855       89292
 force_and_stress                        7.148701           1
 eccp                                    6.280680        8568
 fftext_mpi                              6.132988       29764
 pw_charge                               3.919691        6580
 kinhamil                                3.755943       29764
 setdij_                                 2.421792          75
 apply_precond                           2.191380       21196
 soft_charge                             1.960401          47
 overl                                   1.775737       50974
 set_charge                              1.734312          47
 set_dd_paw                              1.493192          49
 setup_precond                           1.340847        8568
 overl1                                  1.337370       29764
 rpromu_gemm                             1.238639       85176
 rpromu                                  0.634546         546
 map_backward                            0.613932       61082
 strnlr                                  0.574099           1
 fft3d_mpi                               0.557193       90954
 hamiltmu                                0.453639       29764
 rspher_all                              0.394618          14
 broyd                                   0.299843          47
 choleski                                0.289438          14
 raccmu_                                 0.201107       29764
 forhar                                  0.188156           2
 depsum                                  0.163742          47
 orthch                                  0.159410           1
 w1_projall                              0.128521       21196
 brmix                                   0.114456          47
 forloc                                  0.100448           1
 setg0                                   0.062652          49
 brget                                   0.044248        6684
 truncate_high_frequency_w1              0.028227       38332
 fornlr                                  0.026364           1
 rpro_isp                                0.022918          91
 strkin                                  0.022717           1
 brsav                                   0.011145        1432
 brpre                                   0.005798          94
 strehar                                 0.005030           1
 strelo                                  0.004587           1
 chggra                                  0.003145           1
 fordep                                  0.000534           1
 brgrid                                  0.000392           1
 redis_pw_over_bands                     0.000000           1
  summed up times    2257.15356397629

 Accumulative profile

 total_time                           2257.153564           1
 eddav                                1808.016355          51
 fft3d_mpi                             490.945820       90954
 fftbas_plan_mpi                       490.450246       90956
 fftwav_mpi                            386.417856       59724
 hamiltmu                              269.276707       29764
 dfftw_execute                         216.289799      272862
 redis_pw                              165.803190       82180
 map_forward                           161.658502      120826
 kinhamil                              159.152570       29764
 fftext_mpi                            155.396627       29764
 orth1                                 127.433652       89460
 raccmu_                                81.881825       29764
 racc0                                  80.343349       29764
 map_scatter                            69.803968       91144
 map_gather                             62.222236       91144
 map_backward                           61.773679       61082
 redis_proj                             57.503086      103390
 m_alltoallv_z                          57.411756       91144
 set_charge                             47.043936          47
 soft_charge                            44.720871          47
 w1_projall                             43.475178       21196
 rpro1                                  43.346657       21196
 crrexp_mul_work_add                    41.378132     4643184
 vhamil                                 27.788673       29764
 force_and_stress                       26.614165           1
 lincom                                 21.243533         728
 crrexp_mul_wave                        19.717906     3647280
 rpro_isp                               16.383182          91
 strnlr                                 12.953906           1
 phaser                                 10.912748         805
 w1_copy                                 8.410855       89292
 eccp                                    6.280680        8568
 fornlr                                  4.183827           1
 pw_charge                               3.919691        6580
 rpromu                                  3.732740         546
 setdij_                                 2.421792          75
 apply_precond                           2.191380       21196
 overl                                   1.775737       50974
 orthch                                  1.701312           1
 set_dd_paw                              1.493192          49
 setup_precond                           1.340847        8568
 overl1                                  1.337370       29764
 rpromu_gemm                             1.238639       85176
 brmix                                   0.538142          47
 rspher_all                              0.394618          14
 broyd                                   0.355236          47
 choleski                                0.289438          14
 fordep                                  0.274417           1
 forhar                                  0.188156           2
 depsum                                  0.163742          47
 forloc                                  0.100448           1
 setg0                                   0.062652          49
 brget                                   0.044248        6684
 truncate_high_frequency_w1              0.028227       38332
 strkin                                  0.022717           1
 chggra                                  0.013571           1
 brsav                                   0.011145        1432
 brpre                                   0.005798          94
 strehar                                 0.005030           1
 strelo                                  0.004587           1
 brgrid                                  0.000392           1
 redis_pw_over_bands                     0.000000           1

Profiling took   5.795595  3.276898  0.012848  0.012492 seconds
Profiling took   6.778039 seconds