 vasp.6.0.8 29Jun18 (build Mar 14 2019 11:44:20) complex

 executed on             LinuxIFC date 2020.12.23  11:56:56

 INCAR:
 POTCAR:    PAW_PBE C 08Apr2002
 POTCAR:    PAW_PBE Co 02Aug2007
 POTCAR:    PAW_PBE H 15Jun2001
 POTCAR:    PAW_PBE N 08Apr2002
 POTCAR:    PAW_PBE O 08Apr2002
 POTCAR:    PAW_PBE C 08Apr2002
   VRHFIN =C: s2p2

   TITEL  = PAW_PBE C 08Apr2002
   POMASS =   12.011; ZVAL   =    4.000    mass and valenz
   ENMAX  =  400.000; ENMIN  =  300.000 eV

 POTCAR:    PAW_PBE Co 02Aug2007
   VRHFIN =Co: d8 s1

   TITEL  = PAW_PBE Co 02Aug2007
   POMASS =   58.933; ZVAL   =    9.000    mass and valenz
   ENMAX  =  267.968; ENMIN  =  200.976 eV

 POTCAR:    PAW_PBE H 15Jun2001
   VRHFIN =H: ultrasoft test

   TITEL  = PAW_PBE H 15Jun2001
   POMASS =    1.000; ZVAL   =    1.000    mass and valenz
   ENMAX  =  250.000; ENMIN  =  200.000 eV

 POTCAR:    PAW_PBE N 08Apr2002
   VRHFIN =N: s2p3

[...]

 POTCAR:    PAW_PBE O 08Apr2002
   VRHFIN =O: s2p4

   TITEL  = PAW_PBE O 08Apr2002
   POMASS =   16.000; ZVAL   =    6.000    mass and valenz
   ENMAX  =  400.000; ENMIN  =  300.000 eV

 Optimization of the real space projectors (new method)

 maximal supplied QI-value         = 25.13
 optimisation between [QCUT,QGAM] = [ 12.32, 24.88] = [ 42.47,173.37] Ry
 Optimized for a Real-space Cutoff    1.06 Angstroem

   l    n(q)    QCUT    max X(q) W(low)/X(q) W(high)/X(q)  e(spline)
   0      8    12.315   115.676    0.34E-03    0.18E-03    0.23E-06
   0      8    12.315    87.132    0.34E-03    0.18E-03    0.22E-06
   1      7    12.315     4.429    0.45E-03    0.12E-03    0.18E-06
   1      7    12.315     2.733    0.35E-03    0.97E-04    0.15E-06
 Optimization of the real space projectors (new method)

[...]

   l    n(q)    QCUT    max X(q) W(low)/X(q) W(high)/X(q)  e(spline)
   0      9    12.315    79.467    0.14E-03    0.22E-04    0.37E-06
   0      9    12.315    66.151    0.14E-03    0.23E-04    0.36E-06
   1      8    12.315    22.077    0.30E-03    0.54E-03    0.45E-06
   1      8    12.315    15.894    0.30E-03    0.55E-03    0.45E-06
 Optimization of the real space projectors (new method)

 maximal supplied QI-value         = 24.76
 optimisation between [QCUT,QGAM] = [ 12.38, 25.00] = [ 42.90,175.06] Ry
 Optimized for a Real-space Cutoff    1.13 Angstroem

   l    n(q)    QCUT    max X(q) W(low)/X(q) W(high)/X(q)  e(spline)
   0      8    12.378    20.381    0.16E-03    0.54E-05    0.27E-06
   0      8    12.378    15.268    0.17E-03    0.61E-05    0.29E-06
   1      8    12.378     5.964    0.38E-03    0.23E-03    0.28E-06
   1      8    12.378     5.382    0.33E-03    0.20E-03    0.25E-06
  PAW_PBE C 08Apr2002                   :
  PAW_PBE Co 02Aug2007                  :
  PAW_PBE H 15Jun2001                   :
  PAW_PBE N 08Apr2002                   :
  PAW_PBE O 08Apr2002                   :

 POSCAR: CoH_5
  positions in direct lattice
  velocities in cartesian coordinates
 exchange correlation table for  LEXCH =        8
   RHO(1)=    0.500       N(1)  =     2000
   RHO(2)=  100.500       N(2)  =     4000

 ion  position               nearest neighbor table
   1  0.874  0.964  0.126- 107 1.09 117 1.35  65 1.40
   2  0.938  0.977  0.412- 112 1.08 118 1.35  65 1.40
   3  0.874  0.816  0.927- 116 1.09 119 1.35  66 1.40
   4  0.626  0.464  0.626- 110 1.09 120 1.35  67 1.40
   5  0.563  0.303  0.140- 111 1.08 121 1.35  68 1.40
   6  0.063  0.803  0.140- 115 1.08 122 1.35  69 1.40
   7  0.562  0.477  0.911- 101 1.08 123 1.35  67 1.40
   8  0.626  0.316  0.426- 113 1.09 124 1.35  68 1.40
   9  0.438  0.477  0.412- 114 1.08 125 1.35  70 1.40
  10  0.126  0.816  0.426- 104 1.09 126 1.35  69 1.40
  11  0.062  0.977  0.912- 105 1.08 127 1.35  71 1.40
  12  0.437  0.303  0.641- 102 1.08 128 1.35  72 1.40
  13  0.937  0.803  0.641- 108 1.08 129 1.35  66 1.40
  14  0.126  0.964  0.625- 109 1.09 130 1.35  71 1.40
  15  0.374  0.316  0.927- 106 1.09 131 1.35  72 1.40
  16  0.374  0.464  0.127- 103 1.09 132 1.35  70 1.40
  17  0.800  0.036  0.455- 141 1.23 133 1.42  33 1.48
  18  0.852  0.074  0.079- 142 1.23 133 1.42  34 1.48
  19  0.851  0.706  0.974- 143 1.23 134 1.42  35 1.48
  20  0.648  0.574  0.580- 144 1.23 135 1.42  36 1.48
  21  0.649  0.206  0.473- 145 1.23 136 1.42  37 1.48
  22  0.201  0.744  0.097- 146 1.23 137 1.42  38 1.48
  23  0.700  0.536  0.955- 147 1.23 135 1.42  39 1.48
  24  0.701  0.244  0.097- 148 1.23 136 1.42  40 1.48
  25  0.300  0.536  0.456- 149 1.23 138 1.42  41 1.48
  26  0.149  0.706  0.474- 150 1.23 137 1.42  42 1.48
  27  0.148  0.075  0.579- 151 1.23 139 1.42  43 1.48
  28  0.351  0.206  0.974- 152 1.23 140 1.42  44 1.48
  29  0.799  0.744  0.598- 153 1.23 134 1.42  45 1.48
  30  0.200  0.036  0.955- 154 1.23 139 1.42  46 1.48
  31  0.299  0.244  0.598- 155 1.23 140 1.42  47 1.48
  32  0.352  0.574  0.080- 156 1.23 138 1.42  48 1.48
  33  0.761  0.080  0.455-  49 1.39  73 1.42  17 1.48
  34  0.813  0.118  0.089-  50 1.39  73 1.42  18 1.48
  35  0.812  0.662  0.964-  51 1.39  74 1.42  19 1.48
  36  0.687  0.618  0.590-  52 1.39  75 1.42  20 1.48
  37  0.688  0.163  0.464-  53 1.39  76 1.42  21 1.48
  38  0.240  0.701  0.098-  54 1.39  77 1.42  22 1.48
  39  0.739  0.579  0.955-  55 1.39  75 1.42  23 1.48
  40  0.740  0.201  0.098-  56 1.39  76 1.42  24 1.48
  41  0.261  0.580  0.456-  57 1.39  78 1.42  25 1.48
  42  0.188  0.662  0.464-  58 1.39  77 1.42  26 1.48
  43  0.186  0.118  0.589-  59 1.39  79 1.42  27 1.48
  44  0.312  0.162  0.964-  60 1.39  80 1.42  28 1.48
  45  0.760  0.701  0.599-  61 1.39  74 1.42  29 1.48
  46  0.239  0.080  0.955-  62 1.39  79 1.42  30 1.48
  47  0.260  0.201  0.599-  63 1.39  80 1.42  31 1.48
  48  0.314  0.618  0.090-  64 1.39  78 1.42  32 1.48
  49  0.717  0.082  0.634-  88 1.09  33 1.39  53 1.40
  50  0.821  0.157  0.915-  99 1.09  34 1.39  56 1.40
  51  0.820  0.623  0.138-  93 1.09  35 1.39  55 1.40
  52  0.679  0.657  0.416-  90 1.09  36 1.39  61 1.40
  53  0.680  0.123  0.638-  98 1.09  37 1.39  49 1.40
  54  0.284  0.698  0.919-  96 1.09  38 1.39  64 1.40
  55  0.783  0.582  0.134-  86 1.09  39 1.39  51 1.40
  56  0.784  0.199  0.919-  87 1.09  40 1.39  50 1.40
  57  0.217  0.582  0.635-  95 1.09  41 1.39  58 1.40
  58  0.180  0.623  0.639-  91 1.09  42 1.39  57 1.40
  59  0.179  0.157  0.415-  92 1.09  43 1.39  63 1.40
  60  0.319  0.123  0.138-  85 1.09  44 1.39  62 1.40
[...]
 142  0.890  0.071  0.920-  18 1.23
 143  0.888  0.709  0.134-  19 1.23
 144  0.611  0.571  0.420-  20 1.23
 145  0.612  0.209  0.633-  21 1.23
 146  0.205  0.779  0.942-  22 1.23
 147  0.705  0.501  0.109-  23 1.23
 148  0.705  0.279  0.942-  24 1.23
 149  0.296  0.501  0.611-  25 1.23
 150  0.111  0.709  0.633-  26 1.23
 151  0.111  0.071  0.419-  27 1.23
 152  0.388  0.209  0.133-  28 1.23
 153  0.795  0.779  0.444-  29 1.23
 154  0.204  0.001  0.109-  30 1.23
 155  0.295  0.279  0.444-  31 1.23
 156  0.390  0.571  0.921-  32 1.23

IMPORTANT INFORMATION: All symmetrisations will be switched off!
NOSYMM: (Re-)initialisation of all symmetry stuff for point group C_1.

                                     Primitive cell

  volume of cell :    3312.3362

  direct lattice vectors                    reciprocal lattice vectors
    18.888714966 -0.002922947  0.015429570     0.052941698  0.000003883 -0.000041027
     0.000552288 29.240070680  3.479760395     0.000008662  0.034679691 -0.004033788
     0.004660913  0.707366737  6.081454917    -0.000139277 -0.019843455  0.166742542

  length of vectors
    18.888721494 29.446399883  6.122457295     0.052941714  0.034913500  0.167919199

  position of ions in fractional coordinates (direct lattice)
     0.873836093  0.963716834  0.126158337
     0.937576724  0.977314457  0.411858505
     0.873510329  0.816240485  0.927142388
     0.626192006  0.463606868  0.625983161
     0.562746540  0.302721984  0.139796438
     0.062632749  0.802678969  0.139925393
     0.562131731  0.477289098  0.911427485
     0.626329037  0.316409236  0.425643997
     0.437921533  0.477337197  0.412307121
     0.126021031  0.816289269  0.426314067
     0.061981087  0.977329463  0.911683425
     0.437259408  0.302643114  0.640530134
     0.937101856  0.802646611  0.640537421
     0.125755177  0.963848417  0.625228669
     0.373599911  0.316274199  0.926897254
     0.374039381  0.463793673  0.126777441
     0.799736422  0.035941547  0.454878876
     0.851804068  0.074444819  0.079162606
     0.850614432  0.705728769  0.974247691
     0.648275178  0.574375384  0.579528140
     0.649215681  0.205946339  0.473442343
     0.200758758  0.744271681  0.097467690
     0.700193022  0.535734772  0.954708894
     0.700978427  0.244359079  0.097049628
     0.300112851  0.535984141  0.456064489
     0.148894913  0.705802555  0.473595573
     0.148101333  0.074516715  0.579118398
     0.350710355  0.205720492  0.973908388
     0.798978594  0.744269092  0.598414490
     0.199787173  0.035885318  0.954652944
     0.299070850  0.244316096  0.598196819
     0.352013344  0.574478539  0.080072257
     0.760969281  0.079697089  0.454669912
     0.813442665  0.117849193  0.089045672
     0.812233505  0.662344577  0.964300565
     0.686638242  0.617762888  0.589655073
     0.687631392  0.162558050  0.463743600
     0.239842112  0.700611016  0.098250676
     0.738948189  0.579487380  0.954750185
     0.740001943  0.200681311  0.097836985
     0.261212945  0.579710651  0.455716452
     0.187555139  0.662485991  0.464229310
     0.186499417  0.117887496  0.589304769
     0.312173041  0.162382277  0.964069006
     0.759993165  0.700583190  0.598970716
     0.238641155  0.079603211  0.954661130
     0.260025569  0.200656821  0.598647088
     0.313523577  0.617844781  0.089807313
     0.716689884  0.081835132  0.633552971
     0.820975946  0.157291668  0.914753227
     0.819601302  0.622857163  0.138379538
     0.679175956  0.657255260  0.415701200
     0.680210075  0.123130559  0.638213630
     0.284150663  0.698487184  0.919429756
     0.783135561  0.581566775  0.133509092
     0.784402653  0.198563910  0.919213350
     0.216898027  0.581827469  0.634552401
     0.180234099  0.623076410  0.638850510
     0.179186594  0.157370834  0.415208279
     0.319445563  0.122891613  0.138198629
[...]
     0.889515301  0.071335984  0.919606013
     0.888094554  0.708868248  0.133942125
     0.610607415  0.571337629  0.420117685
     0.611695100  0.209133976  0.633327942
     0.205170174  0.779136122  0.942447971
     0.704798804  0.500761762  0.108978854
     0.705439823  0.279229574  0.942106719
     0.295580060  0.501097893  0.610896516
     0.111101343  0.708893275  0.633015217
     0.110541226  0.071467323  0.419471177
     0.388312995  0.208790032  0.133426286
     0.794584963  0.779180991  0.443736819
     0.204283718  0.000927606  0.109036535
     0.294724016  0.279231072  0.443518968
     0.389745487  0.571391086  0.920522947

  ion indices of the primitive-cell ions
   primitive index   ion index
                 1           1
                 2           2
                 3           3
                 4           4
                 5           5
                 6           6
                 7           7
                 8           8
[...]
   0.195E+03 -.238E+02 0.468E+00   -.198E+03 0.275E+02 0.285E+00   0.233E+01 -.368E+01 -.760E+00   0.271E-04 0.322E-04 -.888E-05
   -.513E+02 0.128E+03 0.603E+01   0.531E+02 -.132E+03 -.637E+01   -.183E+01 0.395E+01 0.328E+00   -.133E-04 -.172E-04 -.739E-05
   -.518E+02 -.128E+03 -.642E+01   0.536E+02 0.132E+03 0.679E+01   -.181E+01 -.396E+01 -.353E+00   -.244E-04 -.494E-05 -.110E-05
   0.507E+02 0.128E+03 0.618E+01   -.525E+02 -.132E+03 -.653E+01   0.182E+01 0.395E+01 0.338E+00   0.209E-04 0.564E-05 -.252E-05
   0.195E+03 0.225E+02 -.775E+00   -.197E+03 -.262E+02 0.238E-01   0.234E+01 0.367E+01 0.770E+00   0.260E-04 -.342E-04 0.475E-05
   -.196E+03 -.234E+02 0.656E+00   0.198E+03 0.271E+02 0.104E+00   -.233E+01 -.368E+01 -.774E+00   -.265E-04 -.621E-05 0.261E-05
   0.195E+03 0.227E+02 -.749E+00   -.197E+03 -.264E+02 -.388E-02   0.235E+01 0.367E+01 0.768E+00   0.276E-04 0.300E-05 0.292E-05
   0.520E+02 -.128E+03 -.627E+01   -.538E+02 0.132E+03 0.662E+01   0.181E+01 -.395E+01 -.342E+00   0.126E-04 0.157E-04 0.825E-05
   0.134E+03 0.568E+02 -.252E+02   -.134E+03 -.568E+02 0.259E+02   0.354E+00 0.727E-01 -.740E+00   0.689E-05 -.727E-05 0.708E-06
   -.423E+02 -.782E+02 0.286E+02   0.425E+02 0.787E+02 -.292E+02   -.226E+00 -.453E+00 0.622E+00   0.259E-04 -.586E-05 -.803E-06
   -.437E+02 0.775E+02 -.287E+02   0.439E+02 -.780E+02 0.293E+02   -.228E+00 0.452E+00 -.622E+00   0.203E-04 0.746E-05 0.147E-05
   0.424E+02 -.783E+02 0.285E+02   -.426E+02 0.788E+02 -.291E+02   0.222E+00 -.454E+00 0.621E+00   -.204E-04 -.312E-05 -.188E-05
   0.433E+02 0.777E+02 -.288E+02   -.436E+02 -.782E+02 0.294E+02   0.227E+00 0.451E+00 -.625E+00   -.244E-04 0.213E-05 0.113E-05
   -.133E+03 -.576E+02 0.251E+02   0.133E+03 0.577E+02 -.258E+02   -.359E+00 -.695E-01 0.737E+00   -.163E-04 -.995E-05 0.350E-05
   -.134E+03 0.568E+02 -.249E+02   0.135E+03 -.569E+02 0.256E+02   -.354E+00 0.726E-01 -.739E+00   -.193E-04 0.160E-04 -.649E-05
   -.133E+03 -.574E+02 0.250E+02   0.134E+03 0.574E+02 -.257E+02   -.358E+00 -.724E-01 0.737E+00   -.694E-05 0.310E-05 0.279E-05
   0.134E+03 0.564E+02 -.252E+02   -.134E+03 -.565E+02 0.259E+02   0.353E+00 0.707E-01 -.741E+00   0.186E-04 0.113E-04 -.638E-05
   0.431E+02 0.775E+02 -.288E+02   -.433E+02 -.780E+02 0.294E+02   0.224E+00 0.450E+00 -.627E+00   -.190E-04 0.686E-05 0.706E-06
   0.424E+02 -.783E+02 0.284E+02   -.427E+02 0.788E+02 -.291E+02   0.227E+00 -.455E+00 0.620E+00   -.194E-04 -.241E-06 -.769E-07
   -.437E+02 0.777E+02 -.287E+02   0.439E+02 -.781E+02 0.293E+02   -.227E+00 0.452E+00 -.626E+00   0.187E-04 0.258E-06 0.448E-06
   0.133E+03 -.577E+02 0.247E+02   -.134E+03 0.578E+02 -.254E+02   0.357E+00 -.690E-01 0.733E+00   0.170E-04 -.116E-04 0.294E-05
   -.134E+03 0.567E+02 -.248E+02   0.134E+03 -.568E+02 0.256E+02   -.351E+00 0.715E-01 -.742E+00   -.837E-05 0.217E-05 0.162E-05
   0.133E+03 -.576E+02 0.247E+02   -.133E+03 0.577E+02 -.254E+02   0.357E+00 -.705E-01 0.736E+00   0.912E-05 -.308E-05 0.184E-05
   -.423E+02 -.786E+02 0.286E+02   0.426E+02 0.791E+02 -.292E+02   -.227E+00 -.451E+00 0.621E+00   0.193E-04 -.562E-05 -.134E-05
   0.208E+03 0.164E+03 -.105E+03   -.209E+03 -.165E+03 0.106E+03   0.388E+00 0.150E+01 -.172E+01   -.101E-04 0.181E-05 -.292E-06
   -.182E+03 -.141E+03 0.113E+03   0.183E+03 0.141E+03 -.115E+03   -.129E+01 0.179E-01 0.194E+01   0.298E-04 -.149E-05 -.282E-06
   -.183E+03 0.140E+03 -.113E+03   0.184E+03 -.140E+03 0.115E+03   -.128E+01 -.174E-01 -.194E+01   0.172E-04 0.145E-04 0.109E-05
   0.182E+03 -.141E+03 0.113E+03   -.183E+03 0.141E+03 -.115E+03   0.129E+01 0.134E-01 0.194E+01   -.157E-04 -.358E-05 -.323E-05
   0.183E+03 0.140E+03 -.113E+03   -.184E+03 -.140E+03 0.115E+03   0.128E+01 -.189E-01 -.195E+01   -.265E-04 -.846E-05 0.238E-05
   -.206E+03 -.165E+03 0.105E+03   0.207E+03 0.166E+03 -.106E+03   -.379E+00 -.150E+01 0.172E+01   -.776E-06 -.260E-04 0.133E-05
   -.208E+03 0.164E+03 -.104E+03   0.209E+03 -.166E+03 0.106E+03   -.386E+00 0.151E+01 -.172E+01   0.120E-05 0.351E-04 0.188E-06
   -.207E+03 -.165E+03 0.105E+03   0.207E+03 0.166E+03 -.106E+03   -.384E+00 -.150E+01 0.172E+01   0.149E-04 -.861E-05 -.116E-05
   0.208E+03 0.164E+03 -.105E+03   -.208E+03 -.165E+03 0.106E+03   0.382E+00 0.150E+01 -.173E+01   -.122E-05 0.303E-04 0.296E-06
   0.182E+03 0.140E+03 -.113E+03   -.184E+03 -.140E+03 0.115E+03   0.128E+01 -.158E-01 -.194E+01   -.156E-04 0.111E-04 0.407E-06
   0.182E+03 -.141E+03 0.113E+03   -.183E+03 0.141E+03 -.115E+03   0.128E+01 0.148E-01 0.194E+01   -.239E-04 -.638E-05 0.404E-06
   -.183E+03 0.141E+03 -.113E+03   0.184E+03 -.141E+03 0.115E+03   -.128E+01 -.133E-01 -.194E+01   0.209E-04 -.235E-06 0.102E-05
[...]
   -.173E+03 0.179E+03 -.250E+03   0.204E+03 -.170E+03 0.293E+03   -.315E+02 -.925E+01 -.436E+02   0.378E-04 -.358E-05 -.263E-05
   0.172E+03 -.181E+03 0.250E+03   -.204E+03 0.171E+03 -.293E+03   0.317E+02 0.911E+01 0.436E+02   -.313E-04 0.140E-04 0.892E-05
   0.172E+03 0.179E+03 -.250E+03   -.203E+03 -.170E+03 0.294E+03   0.315E+02 -.933E+01 -.437E+02   -.443E-04 0.917E-06 -.976E-05
   -.408E+03 -.272E+03 0.197E+03   0.411E+03 0.313E+03 -.233E+03   -.359E+01 -.403E+02 0.361E+02   -.712E-04 -.317E-04 0.920E-05
   -.411E+03 0.272E+03 -.195E+03   0.415E+03 -.313E+03 0.231E+03   -.381E+01 0.405E+02 -.359E+02   -.703E-04 0.581E-04 -.180E-04
   -.408E+03 -.272E+03 0.196E+03   0.412E+03 0.313E+03 -.233E+03   -.363E+01 -.403E+02 0.361E+02   -.486E-04 -.323E-05 0.117E-04
   0.410E+03 0.271E+03 -.196E+03   -.413E+03 -.311E+03 0.232E+03   0.368E+01 0.404E+02 -.361E+02   0.711E-04 0.383E-04 -.111E-04
   0.173E+03 0.181E+03 -.250E+03   -.205E+03 -.172E+03 0.293E+03   0.317E+02 -.918E+01 -.435E+02   -.355E-04 -.732E-06 -.438E-05
   0.172E+03 -.180E+03 0.250E+03   -.203E+03 0.171E+03 -.293E+03   0.316E+02 0.913E+01 0.436E+02   -.319E-04 -.965E-05 0.368E-05
   -.173E+03 0.181E+03 -.250E+03   0.205E+03 -.171E+03 0.293E+03   -.316E+02 -.915E+01 -.436E+02   0.216E-04 0.394E-05 -.117E-04
   0.408E+03 -.273E+03 0.195E+03   -.412E+03 0.313E+03 -.231E+03   0.363E+01 -.404E+02 0.360E+02   0.736E-04 -.413E-04 0.102E-04
   -.410E+03 0.272E+03 -.195E+03   0.414E+03 -.313E+03 0.231E+03   -.372E+01 0.405E+02 -.359E+02   -.637E-04 -.692E-05 -.384E-05
   0.408E+03 -.273E+03 0.195E+03   -.411E+03 0.313E+03 -.231E+03   0.360E+01 -.404E+02 0.360E+02   0.599E-04 -.240E-05 0.701E-05
   -.171E+03 -.181E+03 0.250E+03   0.203E+03 0.172E+03 -.293E+03   -.317E+02 0.919E+01 0.436E+02   0.270E-04 0.478E-05 0.110E-04
   -.298E-01 -.365E+00 -.426E+00   0.313E-12 0.426E-12 0.909E-12   0.337E-01 0.424E+00 0.406E+00   -.179E-03 0.178E-04 -.729E-05

 POSITION                                       TOTAL-FORCE (eV/Angst)
     16.50676     28.26583      4.13421         0.000240      0.001596      0.002225
     17.71208     28.86534      5.91999        -0.000380     -0.002263      0.000167
     16.50426     24.52021      8.49217        -0.000205     -0.001097     -0.000730
     11.83114     13.99687      5.42979        -0.000537      0.001742      0.002260
     10.63038      8.94885      1.91225         0.001240     -0.001526     -0.000778
      1.18415     23.56919      3.64505        -0.000885      0.000826     -0.000111
     10.62246     14.59904      7.21233         0.000847     -0.002275      0.003032
     11.83271      9.55108      3.69923        -0.001934      0.002698     -0.000676
      8.27396     14.24775      4.17520        -0.003889      0.001509      0.001056
      2.38281     24.16955      5.43505        -0.002190      0.002072     -0.001030
      1.17553     29.22190      8.94619         0.001736     -0.001067      0.002531
      8.26242      9.30112      4.95523        -0.001311     -0.002192      0.000070
     17.70408     23.91980      6.70288        -0.000853     -0.001126      0.000268
      2.37880     28.62489      7.15820         0.001044      0.003667      0.002306
      7.06132      9.90244      6.74321         0.001044     -0.000716      0.000074
      7.06597     13.64994      2.39065         0.000895      0.001579      0.001969
     15.10813      1.37036      2.90373         0.001335     -0.004758      0.002706
     16.08989      2.23028      0.75362        -0.000857     -0.001925     -0.001112
     16.07194     21.32222      8.39374         0.004188      0.007162      0.003880
     12.24810     17.20282      5.53307         0.002742      0.000368     -0.000302
     12.26517      6.35489      3.60588        -0.004455      0.001782      0.008057
      3.79294     21.83092      3.18573        -0.003526      0.008004     -0.002276
     13.23049     16.33821      7.68105        -0.001913     -0.007088      0.001731
     13.24117      7.21168      1.45133        -0.002403      0.004837      0.000147
      5.67117     15.99394      4.64326        -0.000963     -0.002290      0.005182
      2.81503     20.97229      5.33847        -0.002789      0.005687      0.004171
      2.80018      2.58809      3.78347        -0.002330     -0.002636     -0.005603
      6.62912      6.70317      6.64405         0.001033      0.002862      0.003694
     15.09488     22.18344      6.24144         0.002802     -0.001953      0.005984
      3.77819      1.72399      5.93363        -0.000296     -0.000733     -0.001521
      5.65199      7.56609      4.49268         0.002144     -0.001061      0.002311
      6.64977     16.85340      2.49143        -0.000430     -0.001618     -0.003150
     14.37590      2.64974      3.05412        -0.001376      0.002266      0.001771
     15.36537      3.50653      0.96417        -0.003711     -0.002099      0.001605
     15.34691     20.04674      8.18168        -0.003367     -0.002802      0.001923
     12.97280     18.47853      5.74622        -0.000836     -0.002511     -0.000679
     12.99072      5.07924      3.39651         0.004034     -0.002012     -0.001392
      4.53115     20.55471      3.03917        -0.001518     -0.002172     -0.000067
     13.96255     17.61745      7.83415         0.001302      0.000024      0.003587
     13.97825      5.93498      1.30473         0.002135     -0.006504      0.000103
      4.93642     17.27238      4.79270         0.002552     -0.004368      0.000484
      3.54521     19.69897      5.13138         0.004246     -0.004268     -0.001207
      3.52555      3.86335      3.99693         0.003942     -0.001802      0.000806
      5.90113      5.42911      6.43281        -0.003994     -0.002602     -0.001202
     14.35847     20.90657      6.09220        -0.001384      0.001090     -0.004568
      4.51212      3.00220      6.08641         0.002794      0.000040      0.001685
      4.91445      6.28992      4.34290        -0.001254     -0.002617     -0.001184
      5.92282     18.12844      2.70095        -0.002847     -0.000287     -0.000250
     13.54035      2.83892      4.14875         0.002880     -0.000664     -0.002254
     15.51153      5.24389      6.12304        -0.003240      0.002192     -0.000353
     15.48220     18.30788      3.02159        -0.000587     -0.000854      0.003700
     12.83106     19.51026      4.82564         0.002758      0.001025      0.001222
     12.85134      4.04981      4.32023         0.000627      0.000697      0.000362
      5.37191     21.07336      8.02642         0.000690     -0.000086     -0.003341
     14.79337     17.09720      2.84773        -0.001177     -0.000129      0.000058
     14.82075      6.45395      6.29321        -0.001030      0.001850     -0.001144
      4.10020     17.46090      5.88697         0.001675      0.001314     -0.002048
      3.40771     18.67017      6.05608        -0.000781      0.001017      0.002107
      3.38663      4.89472      3.07545         0.000322      0.001467     -0.000883
      6.03463      3.69018      1.27301         0.001474      0.001979      0.002415
[...]
     16.80613      2.73377      5.85450        -0.001268     -0.002577     -0.000967
     16.77598     20.81951      3.29496        -0.006452     -0.003960     -0.005402
     11.53586     17.00135      4.55247         0.001396     -0.003792     -0.002151
     11.55720      6.56130      4.58873         0.005599     -0.003869     -0.007290
      3.88022     23.44805      8.44583        -0.001837     -0.006445      0.003803
     13.31353     14.71734      2.41616         0.000719      0.001063     -0.000037
     13.32940      8.82905      6.71192        -0.000994     -0.001564      0.000776
      5.58625     15.08340      5.46340        -0.000515      0.002798     -0.001072
      2.10190     21.17554      6.31815         0.005975     -0.000434     -0.003710
      2.08998      2.38611      2.80139         0.003574      0.000119      0.002766
      7.33547      6.19828      1.54396        -0.005486     -0.002229     -0.001961
     15.01119     23.09487      5.42219         0.000515      0.002331      0.000343
      3.85917      0.10365      0.66948         0.000877     -0.004499      0.003513
      5.56918      8.47761      3.67345         0.001814      0.003950     -0.000531
      7.36640     17.35752      7.59244        -0.002356     -0.002133     -0.002630
    total drift:                                0.003733      0.058792     -0.020598

  FREE ENERGIE OF THE ION-ELECTRON SYSTEM (eV)
  free  energy   TOTEN  =     -1179.19731746 eV

  energy  without entropy=    -1179.18942623  energy(sigma->0) =    -1179.19337185

 reached required accuracy - stopping structural energy minimisation
 writing wavefunctions

 total charge

[...]

 magnetization (x)

# of ion       s       p       d       tot
    1        0.003   0.013   0.000   0.016
    2        0.003   0.014   0.000   0.017
    3        0.003   0.013   0.000   0.016
    4       -0.003  -0.013   0.000  -0.016
    5       -0.003  -0.014   0.000  -0.017
    6        0.003   0.014   0.000   0.017
    7       -0.003  -0.014   0.000  -0.017
    8       -0.003  -0.013   0.000  -0.016
    9       -0.003  -0.014   0.000  -0.017
   10        0.003   0.013   0.000   0.016
   11        0.003   0.014   0.000   0.017
   12       -0.003  -0.014   0.000  -0.017
   13        0.003   0.014   0.000   0.017
   14        0.003   0.013   0.000   0.016
   15       -0.003  -0.013   0.000  -0.016
   16       -0.003  -0.013   0.000  -0.016
   17        0.000   0.001   0.000   0.001
   18        0.000   0.001   0.000   0.001
   19        0.000   0.001   0.000   0.001
   20       -0.000  -0.001   0.000  -0.001
   21       -0.000  -0.001   0.000  -0.001
   22        0.000   0.001   0.000   0.001
   23       -0.000  -0.001   0.000  -0.001
   24       -0.000  -0.001   0.000  -0.001
   25       -0.000  -0.001   0.000  -0.001
   26        0.000   0.001   0.000   0.001
   27        0.000   0.001   0.000   0.001
   28       -0.000  -0.001   0.000  -0.001
   29        0.000   0.001   0.000   0.001
   30        0.000   0.001   0.000   0.001
   31       -0.000  -0.001   0.000  -0.001
   32       -0.000  -0.001   0.000  -0.001
   33        0.000  -0.000   0.000  -0.000
   34        0.000  -0.000   0.000  -0.000
   35        0.000  -0.000   0.000  -0.000
   36       -0.000   0.000   0.000   0.000
   37       -0.000   0.000   0.000   0.000
   38        0.000  -0.000   0.000  -0.000
   39       -0.000   0.000   0.000   0.000
   40       -0.000   0.000   0.000   0.000
   41       -0.000   0.000   0.000   0.000
   42        0.000  -0.000   0.000  -0.000
   43        0.000  -0.000   0.000  -0.000
   44       -0.000   0.000   0.000   0.000
   45        0.000  -0.000   0.000  -0.000
   46        0.000  -0.000   0.000  -0.000
   47       -0.000   0.000   0.000   0.000
   48       -0.000   0.000   0.000   0.000
   49        0.000   0.000   0.000   0.000
   50        0.000   0.000   0.000   0.000
   51        0.000   0.000   0.000   0.000
   52       -0.000  -0.000   0.000  -0.000
   53       -0.000  -0.000   0.000  -0.000
   54        0.000   0.000   0.000   0.000
   55       -0.000  -0.000   0.000  -0.000
   56       -0.000  -0.000   0.000  -0.000
   57       -0.000  -0.000   0.000  -0.000
   58        0.000   0.000   0.000   0.000
   59        0.000   0.000   0.000   0.000
   60       -0.000  -0.000   0.000  -0.000
[...]
  142        0.000   0.001   0.000   0.001
  143        0.000   0.001   0.000   0.001
  144       -0.000  -0.001   0.000  -0.001
  145       -0.000  -0.001   0.000  -0.001
  146        0.000   0.001   0.000   0.001
  147       -0.000  -0.001   0.000  -0.001
  148       -0.000  -0.001   0.000  -0.001
  149       -0.000  -0.001   0.000  -0.001
  150        0.000   0.001   0.000   0.001
  151        0.000   0.001   0.000   0.001
  152       -0.000  -0.001   0.000  -0.001
  153        0.000   0.001   0.000   0.001
  154        0.000   0.001   0.000   0.001
  155       -0.000  -0.001   0.000  -0.001
  156       -0.000  -0.001   0.000  -0.001
tot          0.000   0.000  -0.000   0.000