 vasp.5.4.4.18Apr17-6-g9f103f2a35 (build May 22 2020 17:00:04) complex

 executed on           IFC15_impi date 2020.09.22  10:48:08

 INCAR:
 POTCAR:    PAW_PBE C 08Apr2002
 POTCAR:    PAW_PBE Co 02Aug2007
 POTCAR:    PAW_PBE H 15Jun2001
 POTCAR:    PAW_PBE N 08Apr2002
 POTCAR:    PAW_PBE O 08Apr2002

 POTCAR:    PAW_PBE C 08Apr2002
   VRHFIN =C: s2p2

   TITEL  = PAW_PBE C 08Apr2002
   POMASS =   12.011; ZVAL   =    4.000    mass and valenz
   ENMAX  =  400.000; ENMIN  =  300.000 eV

 POTCAR:    PAW_PBE Co 02Aug2007
   VRHFIN =Co: d8 s1

   TITEL  = PAW_PBE Co 02Aug2007
   POMASS =   58.933; ZVAL   =    9.000    mass and valenz
   ENMAX  =  267.968; ENMIN  =  200.976 eV

 POTCAR:    PAW_PBE H 15Jun2001
   VRHFIN =H: ultrasoft test

   TITEL  = PAW_PBE H 15Jun2001
   POMASS =    1.000; ZVAL   =    1.000    mass and valenz
   ENMAX  =  250.000; ENMIN  =  200.000 eV

 POTCAR:    PAW_PBE N 08Apr2002
   VRHFIN =N: s2p3

[...]

 POTCAR:    PAW_PBE O 08Apr2002
   VRHFIN =O: s2p4

   TITEL  = PAW_PBE O 08Apr2002
   POMASS =   16.000; ZVAL   =    6.000    mass and valenz
   ENMAX  =  400.000; ENMIN  =  300.000 eV

 Optimization of the real space projectors (new method)

 maximal supplied QI-value         = 25.13
 optimisation between [QCUT,QGAM] = [ 12.32, 24.88] = [ 42.47,173.37] Ry
 Optimized for a Real-space Cutoff    1.06 Angstroem

   l    n(q)    QCUT    max X(q) W(low)/X(q) W(high)/X(q)  e(spline)
   0      8    12.315   115.676    0.34E-03    0.18E-03    0.23E-06
   0      8    12.315    87.132    0.34E-03    0.18E-03    0.22E-06
   1      7    12.315     4.429    0.45E-03    0.12E-03    0.18E-06
   1      7    12.315     2.733    0.35E-03    0.97E-04    0.15E-06
 Optimization of the real space projectors (new method)

[...]

   l    n(q)    QCUT    max X(q) W(low)/X(q) W(high)/X(q)  e(spline)
   0      9    12.315    79.467    0.14E-03    0.22E-04    0.37E-06
   0      9    12.315    66.151    0.14E-03    0.23E-04    0.36E-06
   1      8    12.315    22.077    0.30E-03    0.54E-03    0.45E-06
   1      8    12.315    15.894    0.30E-03    0.55E-03    0.45E-06
 Optimization of the real space projectors (new method)

 maximal supplied QI-value         = 24.76
 optimisation between [QCUT,QGAM] = [ 12.38, 25.00] = [ 42.90,175.06] Ry
 Optimized for a Real-space Cutoff    1.13 Angstroem

   l    n(q)    QCUT    max X(q) W(low)/X(q) W(high)/X(q)  e(spline)
   0      8    12.378    20.381    0.16E-03    0.54E-05    0.27E-06
   0      8    12.378    15.268    0.17E-03    0.61E-05    0.29E-06
   1      8    12.378     5.964    0.38E-03    0.23E-03    0.28E-06
   1      8    12.378     5.382    0.33E-03    0.20E-03    0.25E-06
  PAW_PBE C 08Apr2002                   :
  PAW_PBE Co 02Aug2007                  :
  PAW_PBE H 15Jun2001                   :
  PAW_PBE N 08Apr2002                   :
  PAW_PBE O 08Apr2002                   :

 POSCAR: CoH_5
  positions in direct lattice
  velocities in cartesian coordinates
 exchange correlation table for  LEXCH =        8
   RHO(1)=    0.500       N(1)  =     2000
   RHO(2)=  100.500       N(2)  =     4000

 ion  position               nearest neighbor table
   1  0.855  0.963  0.134- 107 1.09 117 1.35  65 1.40
   2  0.934  0.974  0.425- 112 1.08 118 1.35  65 1.40
   3  0.856  0.816  0.921- 116 1.09 119 1.35  66 1.40
   4  0.644  0.463  0.631- 110 1.09 120 1.35  67 1.40
   5  0.565  0.306  0.128- 111 1.08 121 1.35  68 1.40
   6  0.066  0.806  0.130- 115 1.08 122 1.35  69 1.40
   7  0.566  0.474  0.922- 101 1.08 123 1.35  67 1.40
   8  0.644  0.317  0.419- 113 1.09 124 1.35  68 1.40
   9  0.435  0.474  0.422- 114 1.08 125 1.35  70 1.40
  10  0.144  0.817  0.421- 104 1.09 126 1.35  69 1.40
  11  0.065  0.974  0.925- 105 1.08 127 1.35  71 1.40
  12  0.434  0.306  0.628- 102 1.08 128 1.35  72 1.40
  13  0.935  0.806  0.631- 108 1.08 129 1.35  66 1.40
  14  0.144  0.964  0.634- 109 1.09 130 1.35  71 1.40
  15  0.356  0.317  0.919- 106 1.09 131 1.35  72 1.40
  16  0.356  0.464  0.131- 103 1.09 132 1.35  70 1.40
  17  0.781  0.040  0.453- 141 1.23 133 1.42  33 1.48
  18  0.858  0.068  0.098- 142 1.23 133 1.42  34 1.48
  19  0.859  0.712  0.957- 143 1.23 134 1.42  35 1.48
  20  0.642  0.568  0.596- 144 1.23 135 1.42  36 1.48
  21  0.641  0.212  0.455- 145 1.23 136 1.42  37 1.48
  22  0.219  0.740  0.101- 146 1.23 137 1.42  38 1.48
  23  0.718  0.541  0.952- 147 1.23 135 1.42  39 1.48
  24  0.717  0.239  0.100- 148 1.23 136 1.42  40 1.48
  25  0.283  0.541  0.451- 149 1.23 138 1.42  41 1.48
  26  0.142  0.712  0.457- 150 1.23 137 1.42  42 1.48
  27  0.141  0.068  0.598- 151 1.23 139 1.42  43 1.48
  28  0.358  0.212  0.956- 152 1.23 140 1.42  44 1.48
  29  0.783  0.739  0.601- 153 1.23 134 1.42  45 1.48
  30  0.217  0.041  0.954- 154 1.23 139 1.42  46 1.48
  31  0.282  0.240  0.600- 155 1.23 140 1.42  47 1.48
  32  0.359  0.568  0.096- 156 1.23 138 1.42  48 1.48
  33  0.745  0.085  0.449-  49 1.39  73 1.42  17 1.48
  34  0.821  0.111  0.103-  50 1.39  73 1.42  18 1.48
  35  0.823  0.668  0.951-  51 1.39  74 1.42  19 1.48
  36  0.678  0.612  0.602-  52 1.39  75 1.42  20 1.48
  37  0.677  0.168  0.450-  53 1.39  76 1.42  21 1.48
  38  0.254  0.696  0.104-  54 1.39  77 1.42  22 1.48
  39  0.754  0.585  0.949-  55 1.39  75 1.42  23 1.48
  40  0.753  0.195  0.104-  56 1.39  76 1.42  24 1.48
  41  0.247  0.585  0.449-  57 1.39  78 1.42  25 1.48
  42  0.179  0.669  0.451-  58 1.39  77 1.42  26 1.48
  43  0.177  0.112  0.603-  59 1.39  79 1.42  27 1.48
  44  0.322  0.169  0.951-  60 1.39  80 1.42  28 1.48
  45  0.747  0.695  0.604-  61 1.39  74 1.42  29 1.48
  46  0.253  0.085  0.950-  62 1.39  79 1.42  30 1.48
  47  0.246  0.195  0.604-  63 1.39  80 1.42  31 1.48
  48  0.323  0.612  0.102-  64 1.39  78 1.42  32 1.48
  49  0.691  0.092  0.617-  88 1.09  33 1.39  53 1.40
  50  0.842  0.146  0.935-  99 1.09  34 1.39  56 1.40
  51  0.843  0.634  0.118-  93 1.09  35 1.39  55 1.40
  52  0.658  0.646  0.435-  90 1.09  36 1.39  61 1.40
  53  0.657  0.134  0.617-  98 1.09  37 1.39  49 1.40
  54  0.309  0.688  0.936-  96 1.09  38 1.39  64 1.40
  55  0.808  0.592  0.117-  86 1.09  39 1.39  51 1.40
  56  0.807  0.187  0.936-  87 1.09  40 1.39  50 1.40
  57  0.193  0.593  0.617-  95 1.09  41 1.39  58 1.40
  58  0.159  0.634  0.618-  91 1.09  42 1.39  57 1.40
  59  0.157  0.146  0.436-  92 1.09  43 1.39  63 1.40
  60  0.342  0.134  0.118-  85 1.09  44 1.39  62 1.40
[...]
 142  0.906  0.060  0.952-  18 1.23
 143  0.907  0.719  0.104-  19 1.23
 144  0.593  0.560  0.449-  20 1.23
 145  0.592  0.220  0.602-  21 1.23
 146  0.233  0.770  0.952-  22 1.23
 147  0.733  0.510  0.101-  23 1.23
 148  0.732  0.269  0.950-  24 1.23
 149  0.268  0.511  0.601-  25 1.23
 150  0.094  0.720  0.604-  26 1.23
 151  0.092  0.060  0.451-  27 1.23
 152  0.406  0.220  0.102-  28 1.23
 153  0.768  0.770  0.451-  29 1.23
 154  0.232  0.011  0.104-  30 1.23
 155  0.267  0.270  0.449-  31 1.23
 156  0.408  0.561  0.949-  32 1.23

IMPORTANT INFORMATION: All symmetrisations will be switched off!
NOSYMM: (Re-)initialisation of all symmetry stuff for point group C_1.

Automatic generation of k-mesh.
 generate k-points for:    2    1    4
Space group operators:
 irot       det(A)        alpha          n_x          n_y          n_z        tau_x        tau_y        tau_z
    1     1.000000     0.000000     1.000000     0.000000     0.000000     0.000000     0.000000     0.000000

 Subroutine IBZKPT returns following result:

 Found      6 irreducible k-points:

 Following reciprocal coordinates:
            Coordinates               Weight
  0.000000  0.000000  0.000000      1.000000
  0.500000 -0.000000  0.000000      1.000000
  0.000000 -0.000000  0.250000      2.000000
  0.500000  0.000000  0.250000      2.000000
  0.000000 -0.000000  0.500000      1.000000
  0.500000  0.000000  0.500000      1.000000

 Following cartesian coordinates:
            Coordinates               Weight
  0.000000  0.000000  0.000000      1.000000
  0.032352 -0.000003  0.000006      1.000000
  0.000006 -0.003312  0.040881      2.000000
  0.032359 -0.003315  0.040886      2.000000
  0.000013 -0.006625  0.081761      1.000000
  0.032365 -0.006628  0.081767      1.000000

 SYSTEM =  flex_MOF
 POSCAR =  CoH_5

 Startparameter for this run:
   NWRITE =      2    write-flag & timer
   PREC   = normal    normal or accurate (medium, high low for compatibility)
   ISTART =      0    job   : 0-new  1-cont  2-samecut
   ICHARG =      2    charge: 1-file 2-atom 10-const
   ISPIN  =      2    spin polarized calculation?
   LNONCOLLINEAR =      F non collinear calculations
   LSORBIT =      F    spin-orbit coupling
   INIWAV =      1    electr: 0-lowe 1-rand  2-diag
   LASPH  =      F    aspherical Exc in radial PAW
   METAGGA=      F    non-selfconsistent MetaGGA calc.

 Electronic Relaxation 1
   ENCUT  =  600.0 eV  44.10 Ry    6.64 a.u.  30.87 62.37 12.35*2*pi/ulx,y,z
   ENINI  =  600.0     initial cutoff
   ENAUG  =  644.9 eV  augmentation charge cutoff
   NELM   =     80;   NELMIN=  8; NELMDL= -5     # of ELM steps
   EDIFF  = 0.1E-05   stopping-criterion for ELM
   LREAL  =      T    real-space projection
   NLSPLINE    = F    spline interpolate recip. space projectors
   LCOMPAT=      F    compatible to vasp.4.4
   GGA_COMPAT  = T    GGA compatible to vasp.4.4-vasp.4.6
   LMAXPAW     = -100 max onsite density
   LMAXMIX     =    2 max onsite mixed and CHGCAR
   VOSKOWN=      0    Vosko Wilk Nusair interpolation
   ROPT   =   -0.00050  -0.00050  -0.00050  -0.00050
   ROPT   =   -0.00050
 Ionic relaxation
   EDIFFG = -.1E-01   stopping-criterion for IOM
   NSW    =    500    number of steps for IOM
   NBLOCK =      1;   KBLOCK =    500    inner block; outer block
   IBRION =      2    ionic relax: 0-MD 1-quasi-New 2-CG
   NFREE  =      1    steps in history (QN), initial steepest desc. (CG)
   ISIF   =      4    stress and relaxation
   IWAVPR =     11    prediction:  0-non 1-charg 2-wave 3-comb
   ISYM   =      0    0-nonsym 1-usesym 2-fastsym
   LCORR  =      T    Harris-Foulkes like correction to forces

   POTIM  = 0.5000    time-step for ionic-motion
   TEIN   =    0.0    initial temperature
   TEBEG  =    0.0;   TEEND  =   0.0 temperature during run
   SMASS  =  -3.00    Nose mass-parameter (am)
   estimated Nose-frequenzy (Omega)   =  0.10E-29 period in steps =****** mass=  -0.546E-26a.u.
   SCALEE = 1.0000    scale energy and forces
   NPACO  =    256;   APACO  = 16.0  distance and # of slots for P.C.
   PSTRESS=    0.0 pullay stress

  Mass of Ions in am
   POMASS =  12.01 58.93  1.00 14.00 16.00
  Ionic Valenz
   ZVAL   =   4.00  9.00  1.00  5.00  6.00
  Atomic Wigner-Seitz radii
  virtual crystal weights
   VCA    =   1.00  1.00  1.00  1.00  1.00
   NELECT =     604.0000    total number of electrons
   NUPDOWN=      -1.0000    fix difference up-down

 DOS related values:
   EMIN   =  10.00;   EMAX   =-10.00  energy-range for DOS
   EFERMI =   0.00
   ISMEAR =     0;   SIGMA  =   0.05  broadening in eV -4-tet -1-fermi 0-gaus

 Electronic relaxation 2 (details)
   IALGO  =     38    algorithm
   LDIAG  =      T    sub-space diagonalisation (order eigenvalues)
   LSUBROT=      F    optimize rotation matrix (better conditioning)
[...]
  110        set_charge                            1.174878                            1   3
  111          soft_charge                           1.118315                          1   4
  112            fftwav_mpi                            0.967558                      120   5
  113              fft3d_mpi                             0.864571                    120   6
  114                fftbas_plan_mpi                       0.864056                  120   7
  115                  dfftw_execute                         0.422021                360   8
  116                  map_forward                           0.375648                240   8
  117                    map_gather                            0.103350              120   9
  118                    m_alltoallv_z                         0.071831              120   9
  119                    map_scatter                           0.122642              120   9
  120            pw_charge                             0.107365                      120   5
  121            fft3d_mpi                             0.010222                        2   5
  122              fftbas_plan_mpi                       0.009055                      2   6
  123                dfftw_execute                         0.003425                    6   7
  124                map_backward                          0.004526                    4   7
  125                  map_gather                            0.001669                  4   8
  126                  m_alltoallv_z                         0.002738                  4   8
  127                  map_scatter                           0.000072                  4   8
  128          depsum                                0.005792                          1   4
  129          fft3d_mpi                             0.009148                          2   4
  130            fftbas_plan_mpi                       0.008791                        2   5
  131              dfftw_execute                         0.001797                      6   6
  132              map_backward                          0.005475                      4   6
  133                map_gather                            0.000342                    2   7
  134                m_alltoallv_z                         0.004491                    2   7
  135                map_scatter                           0.000603                    2   7
  136        forloc                                0.149853                            1   3
  137        fornlr                                4.618089                            1   3
  138          rspher_all                            0.094569                          3   4
  139          phaser                                0.267597                         18   4
  140          rpro_isp                              4.245194                         18   4
  141            fftwav_mpi                            3.453928                      432   5
  142              fft3d_mpi                             3.075088                    432   6
  143                fftbas_plan_mpi                       3.073316                  432   7
  144                  dfftw_execute                         1.508636               1296   8
  145                  map_forward                           1.327833                864   8
  146                    map_gather                            0.358885              432   9
  147                    m_alltoallv_z                         0.262296              432   9
  148                    map_scatter                           0.433842              432   9
  149            rpromu                                0.787630                      108   5
  150              crrexp_mul_wave                       0.396465                  67392   6
  151              rpromu_gemm                           0.257813                  16848   6
  152        fordep                                0.206169                            1   3
  153          setdij_                               0.205647                          6   4
  154        setdij_                               0.679427                           20   3
  155        set_dd_paw                            0.030306                            1   3
  156        strkin                                0.025628                            1   3
  157        strelo                                0.005837                            1   3
  158        strnlr                               13.785579                            1   3
  159          rspher_all                            0.285132                          9   4
  160          phaser                                0.804520                         54   4
  161          rpro_isp                             12.653792                         54   4
  162            fftwav_mpi                           10.297680                     1296   5
  163              fft3d_mpi                             9.203396                   1296   6
  164                fftbas_plan_mpi                       9.198897                 1296   7
  165                  dfftw_execute                         4.520665               3888   8
  166                  map_forward                           3.967839               2592   8
  167                    map_gather                            1.067098             1296   9
  168                    m_alltoallv_z                         0.785404             1296   9
  169                    map_scatter                           1.297940             1296   9
  170            rpromu                                2.345568                      324   5
  171              crrexp_mul_wave                       1.190490                 202176   6
  172              rpromu_gemm                           0.765962                  50544   6
  173        fft3d_mpi                             0.093397                           22   3
  174          fftbas_plan_mpi                       0.089118                         22   4
  175            dfftw_execute                         0.022183                       66   5
  176            map_forward                           0.022604                       20   5
  177              map_gather                            0.001770                     10   6
  178              m_alltoallv_z                         0.018769                     10   6
  179              map_scatter                           0.001893                     10   6
  180            map_backward                          0.029293                       24   5
  181              map_gather                            0.002142                     12   6
  182              m_alltoallv_z                         0.023637                     12   6
  183              map_scatter                           0.003215                     12   6
  184        forhar                                0.270594                            2   3
  185        strehar                               0.006036                            1   3
  186        chggra                                0.019032                            1   3
  187          fft3d_mpi                             0.015314                          3   4
  188            fftbas_plan_mpi                       0.014776                        3   5
  189              dfftw_execute                         0.003062                      9   6
  190              map_forward                           0.006849                      4   6
  191                map_gather                            0.000337                    2   7
  192                m_alltoallv_z                         0.006025                    2   7
  193                map_scatter                           0.000387                    2   7
  194              map_backward                          0.002811                      2   6
  195                map_gather                            0.000177                    1   7
  196                m_alltoallv_z                         0.002356                    1   7
  197                map_scatter                           0.000251                    1   7
  198        brmix                                 0.028457                            1   3
  199          brpre                                 0.000085                          2   4
  200          setg0                                 0.001822                          1   4
  201          broyd                                 0.023024                          1   4
  202            brget                                 0.002304                      255   5
  203            brsav                                 0.000495                       46   5

 Flat profile

 eddav                                 627.764349          46
 total_time                            437.128450           1
 dfftw_execute                         245.386379      210894
 redis_pw                              151.381736       63198
 orth1                                 125.199921       68838
 map_scatter                            75.723204       70468
 map_gather                             64.529217       70468
 m_alltoallv_z                          61.485373       70468
 fftwav_mpi                             53.398990       46084
 redis_proj                             49.212342       79484
 fftbas_plan_mpi                        39.495554       70300
 map_forward                            37.485629       93406
 crrexp_mul_work_add                    34.485271     3572088
 racc0                                  33.471889       22898
 vhamil                                 31.926447       22898
 lincom                                 21.498292         564
 rpro1                                  20.527457       16274
 crrexp_mul_wave                        16.337299     2830776
 phaser                                  9.336493         630
 w1_copy                                 9.163745       68694
 eccp                                    6.796743        6624
 fftext_mpi                              6.404412       22898
 force_and_stress                        5.831895           1
 pw_charge                               4.455562        5040
 kinhamil                                4.014109       22898
 setdij_                                 2.400356          70
 apply_precond                           2.188076       16274
 soft_charge                             2.130585          42
 set_charge                              1.746971          42
 overl                                   1.434160       39184
 set_dd_paw                              1.351308          44
 setup_precond                           1.350305        6624
 rpromu_gemm                             1.140538       73008
 overl1                                  1.104122       22898
 fft3d_mpi                               0.594131       70298
 rpromu                                  0.567568         468
 map_backward                            0.474391       47190
 rspher_all                              0.431580          14
 broyd                                   0.358130          42
 hamiltmu                                0.356421       22898
 forhar                                  0.270594           2
 choleski                                0.256089          12
 orthch                                  0.242774           1
 depsum                                  0.208776          42
 raccmu_                                 0.153234       22898
 forloc                                  0.149853           1
 brmix                                   0.146635          42
 w1_projall                              0.099437       16274
 setg0                                   0.082875          44
 strnlr                                  0.042135           1
 brget                                   0.042028        4908
 strkin                                  0.025628           1
 truncate_high_frequency_w1              0.021354       29522
 rpro_isp                                0.015769          78
 brsav                                   0.011638        1079
 fornlr                                  0.010729           1
 strehar                                 0.006036           1
 strelo                                  0.005837           1
 brpre                                   0.005486          84
 chggra                                  0.003718           1
 fordep                                  0.000522           1
 brgrid                                  0.000443           1
 redis_pw_over_bands                     0.000001           1
  summed up times    2191.87098598480

 Accumulative profile

 total_time                           2191.870986           1
 eddav                                1666.172086          46
 fft3d_mpi                             525.117594       70298
 fftbas_plan_mpi                       524.579747       70300
 fftwav_mpi                            415.213860       46084
 hamiltmu                              269.105662       22898
 dfftw_execute                         245.386379      210894
 map_forward                           174.251955       93406
 kinhamil                              167.608278       22898
 fftext_mpi                            163.594170       22898
 redis_pw                              151.381736       63198
 orth1                                 125.199921       68838
 map_scatter                            75.723204       70468
 raccmu_                                69.214515       22898
 racc0                                  67.957159       22898
 map_backward                           65.445859       47190
 map_gather                             64.529217       70468
 m_alltoallv_z                          61.485373       70468
 set_charge                             50.700324          42
 redis_proj                             49.212342       79484
 soft_charge                            48.282673          42
 w1_projall                             35.256142       16274
 rpro1                                  35.156705       16274
 crrexp_mul_work_add                    34.485271     3572088
 vhamil                                 31.926447       22898
 force_and_stress                       26.925177           1
 lincom                                 21.498292         564
 rpro_isp                               18.371247          78
 crrexp_mul_wave                        16.337299     2830776
 strnlr                                 13.785579           1
 phaser                                  9.336493         630
 w1_copy                                 9.163745       68694
 eccp                                    6.796743        6624
 fornlr                                  4.618089           1
 pw_charge                               4.455562        5040
 rpromu                                  3.416157         468
 setdij_                                 2.400356          70
 apply_precond                           2.188076       16274
 orthch                                  1.887357           1
 overl                                   1.434160       39184
 set_dd_paw                              1.351308          44
 setup_precond                           1.350305        6624
 rpromu_gemm                             1.140538       73008
 overl1                                  1.104122       22898
 brmix                                   0.646791          42
 rspher_all                              0.431580          14
 broyd                                   0.411795          42
 forhar                                  0.270594           2
 choleski                                0.256089          12
 depsum                                  0.208776          42
 fordep                                  0.206169           1
 forloc                                  0.149853           1
 setg0                                   0.082875          44
 brget                                   0.042028        4908
 strkin                                  0.025628           1
 truncate_high_frequency_w1              0.021354       29522
 chggra                                  0.019032           1
 brsav                                   0.011638        1079
 strehar                                 0.006036           1
 strelo                                  0.005837           1
 brpre                                   0.005486          84
 brgrid                                  0.000443           1
 redis_pw_over_bands                     0.000001           1

Profiling took   4.525151  2.560752  0.011598  0.011208 seconds
Profiling took   5.341477 seconds