 vasp.5.4.4.18Apr17-6-g9f103f2a35 (build May 22 2020 17:00:04) complex

 executed on           IFC15_impi date 2020.09.25  13:13:14

 INCAR:
 POTCAR:    PAW_PBE C 08Apr2002
 POTCAR:    PAW_PBE Co 02Aug2007
 POTCAR:    PAW_PBE H 15Jun2001
 POTCAR:    PAW_PBE N 08Apr2002
 POTCAR:    PAW_PBE O 08Apr2002

 POTCAR:    PAW_PBE C 08Apr2002
   VRHFIN =C: s2p2

   TITEL  = PAW_PBE C 08Apr2002
   POMASS =   12.011; ZVAL   =    4.000    mass and valenz
   ENMAX  =  400.000; ENMIN  =  300.000 eV

 POTCAR:    PAW_PBE Co 02Aug2007
   VRHFIN =Co: d8 s1

   TITEL  = PAW_PBE Co 02Aug2007
   POMASS =   58.933; ZVAL   =    9.000    mass and valenz
   ENMAX  =  267.968; ENMIN  =  200.976 eV

 POTCAR:    PAW_PBE H 15Jun2001
   VRHFIN =H: ultrasoft test

   TITEL  = PAW_PBE H 15Jun2001
   POMASS =    1.000; ZVAL   =    1.000    mass and valenz
   ENMAX  =  250.000; ENMIN  =  200.000 eV

 POTCAR:    PAW_PBE N 08Apr2002
   VRHFIN =N: s2p3

[...]

 POTCAR:    PAW_PBE O 08Apr2002
   VRHFIN =O: s2p4

   TITEL  = PAW_PBE O 08Apr2002
   POMASS =   16.000; ZVAL   =    6.000    mass and valenz
   ENMAX  =  400.000; ENMIN  =  300.000 eV

 Optimization of the real space projectors (new method)

 maximal supplied QI-value         = 25.13
 optimisation between [QCUT,QGAM] = [ 12.32, 24.88] = [ 42.47,173.37] Ry
 Optimized for a Real-space Cutoff    1.06 Angstroem

   l    n(q)    QCUT    max X(q) W(low)/X(q) W(high)/X(q)  e(spline)
   0      8    12.315   115.676    0.34E-03    0.18E-03    0.23E-06
   0      8    12.315    87.132    0.34E-03    0.18E-03    0.22E-06
   1      7    12.315     4.429    0.45E-03    0.12E-03    0.18E-06
   1      7    12.315     2.733    0.35E-03    0.97E-04    0.15E-06
 Optimization of the real space projectors (new method)

[...]

   l    n(q)    QCUT    max X(q) W(low)/X(q) W(high)/X(q)  e(spline)
   0      9    12.315    79.467    0.14E-03    0.22E-04    0.37E-06
   0      9    12.315    66.151    0.14E-03    0.23E-04    0.36E-06
   1      8    12.315    22.077    0.30E-03    0.54E-03    0.45E-06
   1      8    12.315    15.894    0.30E-03    0.55E-03    0.45E-06
 Optimization of the real space projectors (new method)

 maximal supplied QI-value         = 24.76
 optimisation between [QCUT,QGAM] = [ 12.38, 25.00] = [ 42.90,175.06] Ry
 Optimized for a Real-space Cutoff    1.13 Angstroem

   l    n(q)    QCUT    max X(q) W(low)/X(q) W(high)/X(q)  e(spline)
   0      8    12.378    20.381    0.16E-03    0.54E-05    0.27E-06
   0      8    12.378    15.268    0.17E-03    0.61E-05    0.29E-06
   1      8    12.378     5.964    0.38E-03    0.23E-03    0.28E-06
   1      8    12.378     5.382    0.33E-03    0.20E-03    0.25E-06
  PAW_PBE C 08Apr2002                   :
  PAW_PBE Co 02Aug2007                  :
  PAW_PBE H 15Jun2001                   :
  PAW_PBE N 08Apr2002                   :
  PAW_PBE O 08Apr2002                   :

 POSCAR: Co_A
  positions in direct lattice
  velocities in cartesian coordinates
 exchange correlation table for  LEXCH =        8
   RHO(1)=    0.500       N(1)  =     2000
   RHO(2)=  100.500       N(2)  =     4000

 ion  position               nearest neighbor table
   1  0.927  0.967  0.132- 107 1.08 117 1.35  65 1.40
   2  0.842  0.958  0.424- 112 1.09 118 1.35  65 1.40
   3  0.927  0.803  0.927- 116 1.08 119 1.35  66 1.40
   4  0.572  0.467  0.624- 110 1.08 120 1.35  67 1.40
   5  0.657  0.311  0.126- 111 1.09 121 1.35  68 1.40
   6  0.157  0.812  0.134- 115 1.09 122 1.35  69 1.40
   7  0.657  0.458  0.917- 101 1.09 123 1.35  67 1.40
   8  0.572  0.303  0.418- 113 1.08 124 1.35  68 1.40
   9  0.342  0.458  0.416- 114 1.09 125 1.35  70 1.40
  10  0.072  0.803  0.427- 104 1.08 126 1.35  69 1.40
  11  0.157  0.958  0.924- 105 1.09 127 1.35  71 1.40
  12  0.342  0.311  0.625- 102 1.09 128 1.35  72 1.40
  13  0.842  0.811  0.633- 108 1.09 129 1.35  66 1.40
  14  0.072  0.967  0.631- 109 1.08 130 1.35  71 1.40
  15  0.428  0.303  0.918- 106 1.08 131 1.35  72 1.40
  16  0.428  0.467  0.124- 103 1.08 132 1.35  70 1.40
  17  0.765  0.037  0.112- 141 1.23 133 1.42  33 1.48
  18  0.860  0.060  0.450- 142 1.23 133 1.42  34 1.48
  19  0.860  0.710  0.606- 143 1.23 134 1.42  35 1.48
  20  0.638  0.559  0.945- 144 1.23 135 1.42  36 1.48
  21  0.639  0.210  0.101- 145 1.23 136 1.42  37 1.48
  22  0.234  0.732  0.444- 146 1.23 137 1.42  38 1.48
  23  0.733  0.537  0.607- 147 1.23 135 1.42  39 1.48
  24  0.733  0.232  0.440- 148 1.23 136 1.42  40 1.48
  25  0.267  0.538  0.106- 149 1.23 138 1.42  41 1.48
  26  0.139  0.710  0.106- 150 1.23 137 1.42  42 1.48
  27  0.140  0.059  0.950- 151 1.23 139 1.42  43 1.48
  28  0.361  0.210  0.601- 152 1.23 140 1.42  44 1.48
  29  0.766  0.732  0.944- 153 1.23 134 1.42  45 1.48
  30  0.234  0.037  0.612- 154 1.23 139 1.42  46 1.48
  31  0.267  0.232  0.940- 155 1.23 140 1.42  47 1.48
  32  0.362  0.559  0.445- 156 1.23 138 1.42  48 1.48
  33  0.733  0.082  0.113-  49 1.39  73 1.42  17 1.48
  34  0.826  0.104  0.444-  50 1.39  73 1.42  18 1.48
  35  0.827  0.666  0.610-  51 1.39  74 1.42  19 1.48
  36  0.671  0.603  0.941-  52 1.39  75 1.42  20 1.48
  37  0.672  0.166  0.108-  53 1.39  76 1.42  21 1.48
  38  0.266  0.688  0.441-  54 1.39  77 1.42  22 1.48
  39  0.765  0.582  0.611-  55 1.39  75 1.42  23 1.48
  40  0.765  0.188  0.438-  56 1.39  76 1.42  24 1.48
  41  0.235  0.582  0.110-  57 1.39  78 1.42  25 1.48
  42  0.173  0.666  0.109-  58 1.39  77 1.42  26 1.48
  43  0.173  0.103  0.944-  59 1.39  79 1.42  27 1.48
  44  0.328  0.166  0.608-  60 1.39  80 1.42  28 1.48
  45  0.733  0.688  0.941-  61 1.39  74 1.42  29 1.48
  46  0.267  0.081  0.614-  62 1.39  79 1.42  30 1.48
  47  0.235  0.188  0.938-  63 1.39  80 1.42  31 1.48
  48  0.328  0.603  0.441-  64 1.39  78 1.42  32 1.48
  49  0.672  0.092  0.952-  88 1.09  33 1.39  53 1.40
  50  0.857  0.135  0.603-  99 1.09  34 1.39  56 1.40
  51  0.857  0.635  0.450-  93 1.09  35 1.39  55 1.40
  52  0.641  0.635  0.101-  90 1.09  36 1.39  61 1.40
  53  0.641  0.134  0.949-  98 1.09  37 1.39  49 1.40
  54  0.327  0.677  0.601-  96 1.09  38 1.39  64 1.40
  55  0.826  0.593  0.450-  86 1.09  39 1.39  51 1.40
  56  0.826  0.177  0.600-  87 1.09  40 1.39  50 1.40
  57  0.174  0.593  0.949-  95 1.09  41 1.39  58 1.40
  58  0.143  0.635  0.949-  91 1.09  42 1.39  57 1.40
  59  0.143  0.135  0.103-  92 1.09  43 1.39  63 1.40
  60  0.358  0.134  0.450-  85 1.09  44 1.39  62 1.40
[...]
 142  0.916  0.050  0.589-  18 1.23
 143  0.916  0.720  0.468-  19 1.23
 144  0.582  0.549  0.083-  20 1.23
 145  0.583  0.219  0.962-  21 1.23
 146  0.256  0.760  0.589-  22 1.23
 147  0.755  0.509  0.463-  23 1.23
 148  0.756  0.260  0.583-  24 1.23
 149  0.245  0.510  0.962-  25 1.23
 150  0.083  0.720  0.968-  26 1.23
 151  0.084  0.050  0.089-  27 1.23
 152  0.417  0.219  0.462-  28 1.23
 153  0.743  0.760  0.088-  29 1.23
 154  0.257  0.009  0.469-  30 1.23
 155  0.244  0.260  0.083-  31 1.23
 156  0.418  0.549  0.583-  32 1.23

IMPORTANT INFORMATION: All symmetrisations will be switched off!
NOSYMM: (Re-)initialisation of all symmetry stuff for point group C_1.

Automatic generation of k-mesh.
 generate k-points for:    2    1    4
Space group operators:
 irot       det(A)        alpha          n_x          n_y          n_z        tau_x        tau_y        tau_z
    1     1.000000     0.000000     1.000000     0.000000     0.000000     0.000000     0.000000     0.000000

 Subroutine IBZKPT returns following result:

 Found      6 irreducible k-points:

 Following reciprocal coordinates:
            Coordinates               Weight
  0.000000  0.000000  0.000000      1.000000
  0.500000  0.000000 -0.000000      1.000000
 -0.000000  0.000000  0.250000      2.000000
  0.500000  0.000000  0.250000      2.000000
 -0.000000  0.000000  0.500000      1.000000
  0.500000  0.000000  0.500000      1.000000

 Following cartesian coordinates:
            Coordinates               Weight
  0.000000  0.000000  0.000000      1.000000
  0.037147  0.000003  0.000021      1.000000
  0.000013  0.002688  0.039619      2.000000
  0.037160  0.002691  0.039640      2.000000
  0.000026  0.005376  0.079237      1.000000
  0.037173  0.005379  0.079258      1.000000

 SYSTEM =  flex_MOF
 POSCAR =  Co_A

 Startparameter for this run:
   NWRITE =      2    write-flag & timer
   PREC   = normal    normal or accurate (medium, high low for compatibility)
   ISTART =      0    job   : 0-new  1-cont  2-samecut
   ICHARG =      2    charge: 1-file 2-atom 10-const
   ISPIN  =      2    spin polarized calculation?
   LNONCOLLINEAR =      F non collinear calculations
   LSORBIT =      F    spin-orbit coupling
   INIWAV =      1    electr: 0-lowe 1-rand  2-diag
   LASPH  =      F    aspherical Exc in radial PAW
   METAGGA=      F    non-selfconsistent MetaGGA calc.

 Electronic Relaxation 1
   ENCUT  =  600.0 eV  44.10 Ry    6.64 a.u.  26.88 63.86 12.70*2*pi/ulx,y,z
   ENINI  =  600.0     initial cutoff
   ENAUG  =  644.9 eV  augmentation charge cutoff
   NELM   =     80;   NELMIN=  8; NELMDL= -5     # of ELM steps
   EDIFF  = 0.1E-05   stopping-criterion for ELM
   LREAL  =      T    real-space projection
   NLSPLINE    = F    spline interpolate recip. space projectors
   LCOMPAT=      F    compatible to vasp.4.4
   GGA_COMPAT  = T    GGA compatible to vasp.4.4-vasp.4.6
   LMAXPAW     = -100 max onsite density
   LMAXMIX     =    2 max onsite mixed and CHGCAR
   VOSKOWN=      0    Vosko Wilk Nusair interpolation
   ROPT   =   -0.00050  -0.00050  -0.00050  -0.00050
   ROPT   =   -0.00050
 Ionic relaxation
   EDIFFG = -.1E-01   stopping-criterion for IOM
   NSW    =    500    number of steps for IOM
   NBLOCK =      1;   KBLOCK =    500    inner block; outer block
   IBRION =      2    ionic relax: 0-MD 1-quasi-New 2-CG
   NFREE  =      1    steps in history (QN), initial steepest desc. (CG)
   ISIF   =      4    stress and relaxation
   IWAVPR =     11    prediction:  0-non 1-charg 2-wave 3-comb
   ISYM   =      0    0-nonsym 1-usesym 2-fastsym
   LCORR  =      T    Harris-Foulkes like correction to forces

   POTIM  = 0.5000    time-step for ionic-motion
   TEIN   =    0.0    initial temperature
   TEBEG  =    0.0;   TEEND  =   0.0 temperature during run
   SMASS  =  -3.00    Nose mass-parameter (am)
   estimated Nose-frequenzy (Omega)   =  0.10E-29 period in steps =****** mass=  -0.414E-26a.u.
   SCALEE = 1.0000    scale energy and forces
   NPACO  =    256;   APACO  = 16.0  distance and # of slots for P.C.
   PSTRESS=    0.0 pullay stress

  Mass of Ions in am
   POMASS =  12.01 58.93  1.00 14.00 16.00
  Ionic Valenz
   ZVAL   =   4.00  9.00  1.00  5.00  6.00
  Atomic Wigner-Seitz radii
  virtual crystal weights
   VCA    =   1.00  1.00  1.00  1.00  1.00
   NELECT =     604.0000    total number of electrons
   NUPDOWN=      -1.0000    fix difference up-down

 DOS related values:
   EMIN   =  10.00;   EMAX   =-10.00  energy-range for DOS
   EFERMI =   0.00
   ISMEAR =     0;   SIGMA  =   0.05  broadening in eV -4-tet -1-fermi 0-gaus

 Electronic relaxation 2 (details)
   IALGO  =     38    algorithm
   LDIAG  =      T    sub-space diagonalisation (order eigenvalues)
   LSUBROT=      F    optimize rotation matrix (better conditioning)
[...]
  110        set_charge                            0.402157                            1   3
  111          soft_charge                           0.349923                          1   4
  112            fftwav_mpi                            0.272353                       36   5
  113              fft3d_mpi                             0.245895                     36   6
  114                fftbas_plan_mpi                       0.245762                   36   7
  115                  dfftw_execute                         0.121220                108   8
  116                  map_forward                           0.104617                 72   8
  117                    map_gather                            0.029141               36   9
  118                    m_alltoallv_z                         0.021417               36   9
  119                    map_scatter                           0.033437               36   9
  120            pw_charge                             0.029190                       36   5
  121            fft3d_mpi                             0.010784                        2   5
  122              fftbas_plan_mpi                       0.009722                      2   6
  123                dfftw_execute                         0.003004                    6   7
  124                map_backward                          0.005624                    4   7
  125                  map_gather                            0.001609                  4   8
  126                  m_alltoallv_z                         0.003907                  4   8
  127                  map_scatter                           0.000051                  4   8
  128          depsum                                0.004995                          1   4
  129          fft3d_mpi                             0.009521                          2   4
  130            fftbas_plan_mpi                       0.009333                        2   5
  131              dfftw_execute                         0.000910                      6   6
  132              map_backward                          0.007057                      4   6
  133                map_gather                            0.000285                    2   7
  134                m_alltoallv_z                         0.006678                    2   7
  135                map_scatter                           0.000061                    2   7
  136        forloc                                0.032801                            1   3
  137        fornlr                                1.435090                            1   3
  138          rspher_all                            0.091691                          3   4
  139          phaser                                0.256242                         18   4
  140          rpro_isp                              1.057261                         18   4
  141            fftwav_mpi                            0.823423                      108   5
  142              fft3d_mpi                             0.718772                    108   6
  143                fftbas_plan_mpi                       0.718393                  108   7
  144                  dfftw_execute                         0.355988                324   8
  145                  map_forward                           0.302474                216   8
  146                    map_gather                            0.080197              108   9
  147                    m_alltoallv_z                         0.063473              108   9
  148                    map_scatter                           0.099183              108   9
  149            rpromu                                0.186968                       36   5
  150              crrexp_mul_wave                       0.092057                  16848   6
  151              rpromu_gemm                           0.062023                   5616   6
  152        fordep                                0.204860                            1   3
  153          setdij_                               0.204395                          6   4
  154        setdij_                               0.767433                           20   3
  155        set_dd_paw                            0.019696                            1   3
  156        strkin                                0.006452                            1   3
  157        strelo                                0.002287                            1   3
  158        strnlr                                4.187117                            1   3
  159          rspher_all                            0.275826                          9   4
  160          phaser                                0.772860                         54   4
  161          rpro_isp                              2.949423                         54   4
  162            fftwav_mpi                            2.373374                      324   5
  163              fft3d_mpi                             2.138505                    324   6
  164                fftbas_plan_mpi                       2.137336                  324   7
  165                  dfftw_execute                         1.059154                972   8
  166                  map_forward                           0.897826                648   8
  167                    map_gather                            0.239097              324   9
  168                    m_alltoallv_z                         0.187977              324   9
  169                    map_scatter                           0.294218              324   9
  170            rpromu                                0.571526                      108   5
  171              crrexp_mul_wave                       0.283611                  50544   6
  172              rpromu_gemm                           0.189402                  16848   6
  173        fft3d_mpi                             0.106844                           22   3
  174          fftbas_plan_mpi                       0.104807                         22   4
  175            dfftw_execute                         0.010650                       66   5
  176            map_forward                           0.043388                       20   5
  177              map_gather                            0.000311                     10   6
  178              m_alltoallv_z                         0.041030                     10   6
  179              map_scatter                           0.001879                     10   6
  180            map_backward                          0.034781                       24   5
  181              map_gather                            0.001474                     12   6
  182              m_alltoallv_z                         0.032754                     12   6
  183              map_scatter                           0.000365                     12   6
  184        forhar                                0.058040                            2   3
  185        strehar                               0.002013                            1   3
  186        chggra                                0.019381                            1   3
  187          fft3d_mpi                             0.015756                          3   4
  188            fftbas_plan_mpi                       0.015426                        3   5
  189              dfftw_execute                         0.001564                      9   6
  190              map_forward                           0.009172                      4   6
  191                map_gather                            0.000054                    2   7
  192                m_alltoallv_z                         0.008739                    2   7
  193                map_scatter                           0.000342                    2   7
  194              map_backward                          0.002565                      2   6
  195                map_gather                            0.000107                    1   7
  196                m_alltoallv_z                         0.002410                    1   7
  197                map_scatter                           0.000031                    1   7
  198        brmix                                 0.012481                            1   3
  199          brpre                                 0.000089                          2   4
  200          setg0                                 0.000474                          1   4
  201          broyd                                 0.010072                          1   4
  202            brget                                 0.000799                      214   5
  203            brsav                                 0.000146                       46   5

 Flat profile

 eddav                                3046.375243          71
 total_time                            439.110995           1
 redis_pw                              105.061697       28029
 dfftw_execute                          98.670934       93741
 orth1                                  80.349462       28893
 redis_proj                             42.119337       35104
 m_alltoallv_z                          37.572814       31517
 map_scatter                            29.650501       31517
 map_gather                             25.481152       31517
 fftwav_mpi                             20.763895       19562
 fftbas_plan_mpi                        18.051839       31249
 map_forward                            14.474981       41062
 crrexp_mul_work_add                    14.033275     1500564
 racc0                                  13.440481        9619
 phaser                                 13.208701         930
 vhamil                                 11.881079        9619
 rpro1                                   9.143616        7063
 lincom                                  8.330773         864
 crrexp_mul_wave                         6.652044     1174836
 force_and_stress                        5.680326           1
 w1_copy                                 3.611802       28857
 soft_charge                             3.553542          67
 setdij_                                 3.471985          95
 set_charge                              2.627364          67
 fftext_mpi                              2.521526        9619
 eccp                                    2.381109        2556
 pw_charge                               1.870705        2412
 kinhamil                                1.509014        9619
 set_dd_paw                              1.498060          69
 apply_precond                           0.900468        7063
 overl                                   0.532366       16694
 setup_precond                           0.500898        2556
 fft3d_mpi                               0.425550       31247
 broyd                                   0.418894          67
 rspher_all                              0.417524          14
 overl1                                  0.409188        9619
 depsum                                  0.364689          67
 rpromu_gemm                             0.283508       24336
 choleski                                0.265754          12
 map_backward                            0.213950       21432
 brmix                                   0.202569          67
 orthch                                  0.199501           1
 strnlr                                  0.189008           1
 hamiltmu                                0.145162        9619
 rpromu                                  0.143359         156
 raccmu_                                 0.062142        9619
 forhar                                  0.058040           2
 rpro_isp                                0.052131          78
 w1_projall                              0.046473        7063
 brget                                   0.036619       10737
 setg0                                   0.035974          69
 forloc                                  0.032801           1
 fornlr                                  0.029897           1
 brsav                                   0.010316        2844
 truncate_high_frequency_w1              0.009120       12175
 brpre                                   0.006848         134
 strkin                                  0.006452           1
 chggra                                  0.003625           1
 strelo                                  0.002287           1
 strehar                                 0.002013           1
 fordep                                  0.000465           1
 brgrid                                  0.000396           1
 redis_pw_over_bands                     0.000001           1
  summed up times    4069.10623908043

 Accumulative profile

 total_time                           4069.106239           1
 eddav                                3572.613586          71
 fft3d_mpi                             224.480080       31247
 fftbas_plan_mpi                       224.116170       31249
 fftwav_mpi                            171.940975       19562
 hamiltmu                              106.058819        9619
 redis_pw                              105.061697       28029
 dfftw_execute                          98.670934       93741
 orth1                                  80.349462       28893
 map_forward                            78.814173       41062
 kinhamil                               66.087492        9619
 fftext_mpi                             64.578478        9619
 redis_proj                             42.119337       35104
 m_alltoallv_z                          37.572814       31517
 map_scatter                            29.650501       31517
 set_charge                             29.007141          67
 map_backward                           28.579224       21432
 raccmu_                                27.945086        9619
 racc0                                  27.473756        9619
 map_gather                             25.481152       31517
 soft_charge                            25.163681          67
 w1_projall                             15.434311        7063
 rpro1                                  15.387838        7063
 crrexp_mul_work_add                    14.033275     1500564
 phaser                                 13.208701         930
 force_and_stress                       12.936978           1
 vhamil                                 11.881079        9619
 lincom                                  8.330773         864
 crrexp_mul_wave                         6.652044     1174836
 rpro_isp                                4.384860          78
 strnlr                                  4.187117           1
 w1_copy                                 3.611802       28857
 setdij_                                 3.471985          95
 eccp                                    2.381109        2556
 pw_charge                               1.870705        2412
 set_dd_paw                              1.498060          69
 fornlr                                  1.435090           1
 orthch                                  1.129022           1
 apply_precond                           0.900468        7063
 rpromu                                  0.834689         156
 brmix                                   0.711219          67
 overl                                   0.532366       16694
 setup_precond                           0.500898        2556
 broyd                                   0.465829          67
 rspher_all                              0.417524          14
 overl1                                  0.409188        9619
 depsum                                  0.364689          67
 rpromu_gemm                             0.283508       24336
 choleski                                0.265754          12
 fordep                                  0.204860           1
 forhar                                  0.058040           2
 brget                                   0.036619       10737
 setg0                                   0.035974          69
 forloc                                  0.032801           1
 chggra                                  0.019381           1
 brsav                                   0.010316        2844
 truncate_high_frequency_w1              0.009120       12175
 brpre                                   0.006848         134
 strkin                                  0.006452           1
 strelo                                  0.002287           1
 strehar                                 0.002013           1
 brgrid                                  0.000396           1
 redis_pw_over_bands                     0.000001           1

Profiling took   1.977526  1.083074  0.012859  0.012391 seconds
Profiling took   2.276848 seconds