 vasp.6.0.8 29Jun18 (build Mar 14 2019 11:44:20) complex

 executed on             LinuxIFC date 2020.12.29  12:23:17

 INCAR:
 POTCAR:    PAW_PBE C 08Apr2002
 POTCAR:    PAW_PBE Co 02Aug2007
 POTCAR:    PAW_PBE H 15Jun2001
 POTCAR:    PAW_PBE N 08Apr2002
 POTCAR:    PAW_PBE O 08Apr2002
 POTCAR:    PAW_PBE C 08Apr2002
   VRHFIN =C: s2p2

   TITEL  = PAW_PBE C 08Apr2002
   POMASS =   12.011; ZVAL   =    4.000    mass and valenz
   ENMAX  =  400.000; ENMIN  =  300.000 eV

 POTCAR:    PAW_PBE Co 02Aug2007
   VRHFIN =Co: d8 s1

   TITEL  = PAW_PBE Co 02Aug2007
   POMASS =   58.933; ZVAL   =    9.000    mass and valenz
   ENMAX  =  267.968; ENMIN  =  200.976 eV

 POTCAR:    PAW_PBE H 15Jun2001
   VRHFIN =H: ultrasoft test

   TITEL  = PAW_PBE H 15Jun2001
   POMASS =    1.000; ZVAL   =    1.000    mass and valenz
   ENMAX  =  250.000; ENMIN  =  200.000 eV

 POTCAR:    PAW_PBE N 08Apr2002
   VRHFIN =N: s2p3

[...]

 POTCAR:    PAW_PBE O 08Apr2002
   VRHFIN =O: s2p4

   TITEL  = PAW_PBE O 08Apr2002
   POMASS =   16.000; ZVAL   =    6.000    mass and valenz
   ENMAX  =  400.000; ENMIN  =  300.000 eV

 Optimization of the real space projectors (new method)

 maximal supplied QI-value         = 25.13
 optimisation between [QCUT,QGAM] = [ 12.32, 24.88] = [ 42.47,173.37] Ry
 Optimized for a Real-space Cutoff    1.06 Angstroem

   l    n(q)    QCUT    max X(q) W(low)/X(q) W(high)/X(q)  e(spline)
   0      8    12.315   115.676    0.34E-03    0.18E-03    0.23E-06
   0      8    12.315    87.132    0.34E-03    0.18E-03    0.22E-06
   1      7    12.315     4.429    0.45E-03    0.12E-03    0.18E-06
   1      7    12.315     2.733    0.35E-03    0.97E-04    0.15E-06
 Optimization of the real space projectors (new method)

[...]

   l    n(q)    QCUT    max X(q) W(low)/X(q) W(high)/X(q)  e(spline)
   0      9    12.315    79.467    0.14E-03    0.22E-04    0.37E-06
   0      9    12.315    66.151    0.14E-03    0.23E-04    0.36E-06
   1      8    12.315    22.077    0.30E-03    0.54E-03    0.45E-06
   1      8    12.315    15.894    0.30E-03    0.55E-03    0.45E-06
 Optimization of the real space projectors (new method)

 maximal supplied QI-value         = 24.76
 optimisation between [QCUT,QGAM] = [ 12.38, 25.00] = [ 42.90,175.06] Ry
 Optimized for a Real-space Cutoff    1.13 Angstroem

   l    n(q)    QCUT    max X(q) W(low)/X(q) W(high)/X(q)  e(spline)
   0      8    12.378    20.381    0.16E-03    0.54E-05    0.27E-06
   0      8    12.378    15.268    0.17E-03    0.61E-05    0.29E-06
   1      8    12.378     5.964    0.38E-03    0.23E-03    0.28E-06
   1      8    12.378     5.382    0.33E-03    0.20E-03    0.25E-06
  PAW_PBE C 08Apr2002                   :
  PAW_PBE Co 02Aug2007                  :
  PAW_PBE H 15Jun2001                   :
  PAW_PBE N 08Apr2002                   :
  PAW_PBE O 08Apr2002                   :

 POSCAR: CoH_exp7
  positions in direct lattice
  velocities in cartesian coordinates
 exchange correlation table for  LEXCH =        8
   RHO(1)=    0.500       N(1)  =     2000
   RHO(2)=  100.500       N(2)  =     4000

 ion  position               nearest neighbor table
   1  0.902  0.968  0.118- 107 1.09 117 1.35  65 1.40
   2  0.933  0.981  0.408- 112 1.08 118 1.35  65 1.40
   3  0.902  0.812  0.935- 116 1.09 119 1.35  66 1.40
   4  0.597  0.468  0.618- 110 1.09 120 1.35  67 1.40
   5  0.567  0.299  0.144- 111 1.08 121 1.35  68 1.40
   6  0.067  0.799  0.144- 115 1.08 122 1.35  69 1.40
   7  0.567  0.481  0.909- 101 1.08 123 1.35  67 1.40
   8  0.598  0.312  0.435- 113 1.09 124 1.35  68 1.40
   9  0.433  0.481  0.409- 114 1.08 125 1.35  70 1.40
  10  0.097  0.812  0.434- 104 1.09 126 1.35  69 1.40
  11  0.067  0.981  0.908- 105 1.08 127 1.35  71 1.40
  12  0.433  0.299  0.644- 102 1.08 128 1.35  72 1.40
  13  0.933  0.799  0.644- 108 1.08 129 1.35  66 1.40
  14  0.098  0.968  0.618- 109 1.09 130 1.35  71 1.40
  15  0.402  0.312  0.935- 106 1.09 131 1.35  72 1.40
  16  0.402  0.468  0.118- 103 1.09 132 1.35  70 1.40
  17  0.823  0.037  0.445- 141 1.23 133 1.42  33 1.48
  18  0.844  0.080  0.093- 142 1.23 133 1.42  34 1.48
  19  0.844  0.701  0.961- 143 1.23 134 1.42  35 1.48
  20  0.656  0.580  0.593- 144 1.23 135 1.42  36 1.48
  21  0.657  0.201  0.461- 145 1.23 136 1.42  37 1.48
  22  0.177  0.743  0.108- 146 1.23 137 1.42  38 1.48
  23  0.677  0.537  0.945- 147 1.23 135 1.42  39 1.48
  24  0.678  0.244  0.108- 148 1.23 136 1.42  40 1.48
  25  0.322  0.536  0.445- 149 1.23 138 1.42  41 1.48
  26  0.156  0.700  0.460- 150 1.23 137 1.42  42 1.48
  27  0.156  0.080  0.593- 151 1.23 139 1.42  43 1.48
  28  0.344  0.200  0.960- 152 1.23 140 1.42  44 1.48
  29  0.822  0.744  0.608- 153 1.23 134 1.42  45 1.48
  30  0.177  0.036  0.945- 154 1.23 139 1.42  46 1.48
  31  0.323  0.244  0.608- 155 1.23 140 1.42  47 1.48
  32  0.344  0.579  0.092- 156 1.23 138 1.42  48 1.48
  33  0.780  0.079  0.445-  49 1.39  73 1.42  17 1.48
  34  0.802  0.122  0.102-  50 1.39  73 1.41  18 1.48
  35  0.801  0.659  0.952-  51 1.39  74 1.41  19 1.48
  36  0.698  0.622  0.601-  52 1.39  75 1.41  20 1.48
  37  0.699  0.159  0.453-  53 1.39  76 1.41  21 1.48
  38  0.220  0.701  0.108-  54 1.39  77 1.42  22 1.48
  39  0.720  0.579  0.945-  55 1.39  75 1.42  23 1.48
  40  0.721  0.202  0.109-  56 1.39  76 1.42  24 1.48
  41  0.280  0.578  0.445-  57 1.39  78 1.42  25 1.48
  42  0.198  0.658  0.452-  58 1.39  77 1.41  26 1.48
  43  0.198  0.122  0.601-  59 1.39  79 1.41  27 1.48
  44  0.301  0.159  0.952-  60 1.39  80 1.41  28 1.48
  45  0.779  0.702  0.609-  61 1.39  74 1.42  29 1.48
  46  0.220  0.079  0.945-  62 1.39  79 1.42  30 1.48
  47  0.280  0.202  0.608-  63 1.39  80 1.42  31 1.48
  48  0.301  0.621  0.101-  64 1.39  78 1.41  32 1.48
  49  0.749  0.078  0.614-  88 1.09  33 1.39  53 1.41
  50  0.792  0.163  0.937-  99 1.09  34 1.39  56 1.41
  51  0.791  0.618  0.117-  93 1.09  35 1.39  55 1.41
  52  0.708  0.663  0.437-  90 1.09  36 1.39  61 1.41
  53  0.709  0.118  0.617-  98 1.09  37 1.39  49 1.41
  54  0.251  0.702  0.940-  96 1.09  38 1.39  64 1.41
  55  0.751  0.578  0.114-  86 1.09  39 1.39  51 1.41
  56  0.752  0.203  0.940-  87 1.09  40 1.39  50 1.41
  57  0.249  0.577  0.613-  95 1.09  41 1.39  58 1.41
  58  0.208  0.617  0.616-  91 1.09  42 1.39  57 1.41
  59  0.208  0.163  0.437-  92 1.09  43 1.39  63 1.41
  60  0.292  0.117  0.117-  85 1.09  44 1.39  62 1.41
[...]
 142  0.871  0.079  0.943-  18 1.23
 143  0.870  0.701  0.111-  19 1.23
 144  0.629  0.579  0.443-  20 1.23
 145  0.630  0.201  0.611-  21 1.23
 146  0.168  0.779  0.962-  22 1.23
 147  0.668  0.501  0.091-  23 1.23
 148  0.668  0.280  0.962-  24 1.23
 149  0.332  0.500  0.591-  25 1.23
 150  0.129  0.701  0.610-  26 1.23
 151  0.129  0.079  0.442-  27 1.23
 152  0.370  0.201  0.111-  28 1.23
 153  0.832  0.780  0.462-  29 1.23
 154  0.168  0.001  0.091-  30 1.23
 155  0.332  0.280  0.462-  31 1.23
 156  0.370  0.579  0.942-  32 1.23

IMPORTANT INFORMATION: All symmetrisations will be switched off!
NOSYMM: (Re-)initialisation of all symmetry stuff for point group C_1.

                                     Primitive cell

  volume of cell :    4141.7216

  direct lattice vectors                    reciprocal lattice vectors
    24.520972635 -0.000277308 -0.000059291     0.040781417 -0.000000378 -0.000003475
     0.000534523 24.652286085  3.588974492     0.000000457  0.040920139 -0.002444983
     0.000592827  0.412970547  6.911627350     0.000000113 -0.021248445  0.145953323

  length of vectors
    24.520972637 24.912164648  6.923953903     0.040781417  0.040993118  0.147491929

  position of ions in fractional coordinates (direct lattice)
     0.902468518  0.968221906  0.117573089
     0.932772012  0.981059957  0.408426464
     0.902363428  0.812123228  0.934542610
     0.597473374  0.468218703  0.617656421
     0.567408346  0.298982330  0.144286219
     0.067078957  0.798857655  0.143645274
     0.567218656  0.481047649  0.908619296
     0.597615535  0.312110410  0.434868007
     0.432555930  0.480903975  0.408526015
     0.097422977  0.811794380  0.434295116
     0.067254253  0.981025554  0.908193743
     0.432737110  0.298934188  0.644082610
     0.932588246  0.799006620  0.643958719
     0.097587849  0.968085611  0.617500495
     0.402467288  0.311917342  0.934786279
     0.402326425  0.467915709  0.117775568
     0.822848445  0.036598606  0.445321195
     0.844103424  0.079791620  0.092808821
     0.843505592  0.700772392  0.960635187
     0.655857403  0.579776573  0.592808237
     0.656505164  0.200790893  0.460956244
     0.177229592  0.743408417  0.107591789
     0.677149119  0.536578082  0.945268692
     0.677666412  0.243848159  0.108337634
     0.322488970  0.536242048  0.445101505
     0.155818751  0.700213260  0.459910965
     0.156021177  0.079646847  0.592620728
     0.343815696  0.200464399  0.960437164
     0.822351453  0.743812066  0.608041354
     0.177235541  0.036464173  0.945113760
     0.322561412  0.243626909  0.607993313
     0.343682944  0.579339015  0.092471656
     0.780152181  0.078838180  0.445082967
     0.801771005  0.121818223  0.101525410
     0.801073971  0.658792648  0.952225640
     0.698194786  0.621801111  0.601425971
     0.698925660  0.158804865  0.452512090
     0.220023588  0.701247234  0.108152257
     0.719838696  0.578828368  0.944961306
     0.720508345  0.201725627  0.108869123
     0.279680823  0.578405320  0.444621561
     0.198293378  0.658263294  0.451590159
     0.198400416  0.121641830  0.601217879
     0.301346184  0.158526600  0.952008144
     0.779497764  0.701694528  0.608598486
     0.219996614  0.078652875  0.944781776
     0.279719051  0.201502396  0.608497064
     0.301320521  0.621349806  0.101025286
     0.749062525  0.077880976  0.613693697
     0.792192117  0.163074182  0.936911581
     0.791444806  0.617591578  0.116983848
     0.707779960  0.663041173  0.436772101
     0.708567260  0.117593995  0.617242586
     0.251189276  0.702248913  0.939671446
     0.750944739  0.577880264  0.113516200
     0.751663680  0.202753892  0.940345477
     0.248507972  0.577426791  0.613064293
     0.207924108  0.617070265  0.616354520
     0.207993026  0.162888911  0.436606563
     0.291686386  0.117319883  0.116728637
[...]
     0.870616911  0.079397439  0.942507271
     0.869931822  0.701260926  0.111030803
     0.629317199  0.579386941  0.442572298
     0.630073453  0.201289240  0.611358382
     0.167827075  0.779311477  0.961661338
     0.667717680  0.500667790  0.091207486
     0.668207316  0.279721878  0.962374117
     0.331984152  0.500382624  0.591102226
     0.129212225  0.700582493  0.610023514
     0.129479706  0.079288166  0.442362982
     0.370329431  0.200857900  0.110708306
     0.831815068  0.779681130  0.462051999
     0.167729133  0.000601894  0.091106433
     0.332002941  0.279518687  0.462056251
     0.370142971  0.578879469  0.942092656

  ion indices of the primitive-cell ions
   primitive index   ion index
                 1           1
                 2           2
                 3           3
                 4           4
                 5           5
                 6           6
                 7           7
                 8           8
[...]
   0.149E+03 -.628E+02 -.403E+01   -.152E+03 0.657E+02 0.479E+01   0.335E+01 -.288E+01 -.770E+00   -.552E-05 -.897E-05 0.135E-04
   -.416E+02 0.149E+03 0.169E+01   0.444E+02 -.152E+03 -.201E+01   -.282E+01 0.342E+01 0.315E+00   -.123E-04 0.949E-05 0.688E-05
   -.421E+02 -.148E+03 -.187E+01   0.449E+02 0.152E+03 0.220E+01   -.281E+01 -.342E+01 -.322E+00   -.120E-04 -.881E-05 -.456E-05
   0.417E+02 0.149E+03 0.177E+01   -.445E+02 -.152E+03 -.210E+01   0.282E+01 0.342E+01 0.318E+00   0.466E-06 -.445E-05 0.410E-05
   0.149E+03 0.624E+02 0.394E+01   -.152E+03 -.653E+02 -.469E+01   0.336E+01 0.288E+01 0.762E+00   0.948E-05 0.251E-04 -.160E-04
   -.149E+03 -.624E+02 -.405E+01   0.152E+03 0.653E+02 0.481E+01   -.334E+01 -.288E+01 -.774E+00   -.102E-04 -.193E-04 0.134E-04
   0.148E+03 0.629E+02 0.392E+01   -.151E+03 -.658E+02 -.467E+01   0.335E+01 0.288E+01 0.759E+00   -.335E-05 0.587E-05 -.108E-04
   0.421E+02 -.149E+03 -.187E+01   -.449E+02 0.152E+03 0.220E+01   0.281E+01 -.342E+01 -.318E+00   -.325E-06 0.464E-05 -.671E-05
   0.855E+02 0.287E+02 -.339E+02   -.858E+02 -.288E+02 0.347E+02   0.322E+00 0.997E-01 -.760E+00   0.401E-05 -.482E-05 0.435E-05
   -.377E+02 -.890E+02 0.375E+02   0.377E+02 0.895E+02 -.381E+02   -.208E-01 -.496E+00 0.624E+00   0.439E-06 -.138E-05 -.516E-06
   -.372E+02 0.880E+02 -.377E+02   0.372E+02 -.885E+02 0.383E+02   -.233E-01 0.491E+00 -.625E+00   0.621E-05 0.414E-05 0.481E-05
   0.380E+02 -.892E+02 0.375E+02   -.381E+02 0.897E+02 -.381E+02   0.219E-01 -.497E+00 0.625E+00   0.354E-05 0.550E-05 -.512E-05
   0.375E+02 0.882E+02 -.377E+02   -.375E+02 -.887E+02 0.383E+02   0.245E-01 0.491E+00 -.625E+00   0.894E-05 -.830E-05 0.919E-06
   -.855E+02 -.292E+02 0.339E+02   0.858E+02 0.293E+02 -.347E+02   -.325E+00 -.103E+00 0.760E+00   -.760E-05 0.129E-04 -.821E-05
   -.852E+02 0.285E+02 -.339E+02   0.855E+02 -.286E+02 0.347E+02   -.321E+00 0.100E+00 -.761E+00   0.341E-05 -.402E-05 0.788E-05
   -.855E+02 -.294E+02 0.338E+02   0.859E+02 0.295E+02 -.345E+02   -.324E+00 -.101E+00 0.760E+00   0.648E-05 -.476E-05 -.375E-05
   0.855E+02 0.289E+02 -.340E+02   -.859E+02 -.290E+02 0.347E+02   0.323E+00 0.104E+00 -.762E+00   -.392E-05 -.216E-05 0.751E-05
   0.380E+02 0.887E+02 -.376E+02   -.380E+02 -.892E+02 0.382E+02   0.264E-01 0.493E+00 -.628E+00   -.700E-05 0.480E-05 0.403E-05
   0.374E+02 -.887E+02 0.375E+02   -.375E+02 0.892E+02 -.381E+02   0.212E-01 -.497E+00 0.630E+00   -.521E-05 -.343E-05 -.267E-05
   -.378E+02 0.887E+02 -.377E+02   0.379E+02 -.892E+02 0.383E+02   -.247E-01 0.493E+00 -.625E+00   -.426E-05 -.702E-05 0.307E-05
   0.857E+02 -.295E+02 0.338E+02   -.861E+02 0.296E+02 -.346E+02   0.320E+00 -.102E+00 0.760E+00   0.738E-05 0.135E-04 -.863E-05
   -.856E+02 0.290E+02 -.340E+02   0.859E+02 -.291E+02 0.347E+02   -.320E+00 0.103E+00 -.760E+00   -.663E-05 -.945E-05 0.730E-05
   0.853E+02 -.290E+02 0.339E+02   -.856E+02 0.291E+02 -.346E+02   0.323E+00 -.101E+00 0.761E+00   -.397E-05 -.927E-06 -.639E-05
   -.375E+02 -.890E+02 0.375E+02   0.375E+02 0.895E+02 -.381E+02   -.246E-01 -.495E+00 0.625E+00   -.337E-05 0.630E-05 -.443E-05
   0.137E+03 0.141E+03 -.115E+03   -.137E+03 -.142E+03 0.116E+03   -.227E+00 0.147E+01 -.192E+01   0.123E-04 0.776E-05 -.188E-04
   -.143E+03 -.145E+03 0.121E+03   0.144E+03 0.145E+03 -.123E+03   -.111E+01 -.220E+00 0.211E+01   -.957E-05 -.132E-04 0.216E-04
   -.142E+03 0.144E+03 -.121E+03   0.143E+03 -.144E+03 0.123E+03   -.110E+01 0.209E+00 -.211E+01   0.131E-05 0.115E-04 -.915E-05
   0.143E+03 -.145E+03 0.121E+03   -.144E+03 0.145E+03 -.123E+03   0.111E+01 -.218E+00 0.211E+01   0.796E-05 -.270E-05 0.880E-05
   0.143E+03 0.144E+03 -.121E+03   -.144E+03 -.144E+03 0.123E+03   0.110E+01 0.213E+00 -.210E+01   0.183E-04 0.437E-05 -.214E-04
   -.137E+03 -.141E+03 0.115E+03   0.137E+03 0.143E+03 -.117E+03   0.225E+00 -.148E+01 0.192E+01   -.157E-04 0.100E-04 0.485E-05
   -.137E+03 0.140E+03 -.115E+03   0.137E+03 -.142E+03 0.116E+03   0.222E+00 0.147E+01 -.192E+01   -.547E-05 0.705E-06 -.819E-05
   -.137E+03 -.142E+03 0.115E+03   0.137E+03 0.143E+03 -.116E+03   0.227E+00 -.148E+01 0.192E+01   -.260E-05 -.171E-04 0.201E-04
   0.137E+03 0.141E+03 -.115E+03   -.137E+03 -.142E+03 0.117E+03   -.225E+00 0.147E+01 -.192E+01   0.508E-05 0.133E-06 -.612E-05
   0.143E+03 0.144E+03 -.121E+03   -.144E+03 -.144E+03 0.124E+03   0.111E+01 0.214E+00 -.210E+01   -.324E-05 0.114E-04 -.653E-05
   0.143E+03 -.145E+03 0.121E+03   -.144E+03 0.145E+03 -.123E+03   0.111E+01 -.221E+00 0.211E+01   0.161E-05 -.122E-04 0.128E-04
   -.143E+03 0.144E+03 -.121E+03   0.144E+03 -.145E+03 0.123E+03   -.110E+01 0.213E+00 -.210E+01   -.106E-04 0.252E-05 -.123E-04
[...]
   -.177E+03 0.258E+03 -.274E+03   0.206E+03 -.255E+03 0.320E+03   -.288E+02 -.329E+01 -.465E+02   0.202E-04 0.260E-04 0.695E-05
   0.180E+03 -.260E+03 0.274E+03   -.208E+03 0.257E+03 -.320E+03   0.289E+02 0.317E+01 0.464E+02   -.346E-05 -.387E-05 -.843E-05
   0.177E+03 0.258E+03 -.274E+03   -.206E+03 -.255E+03 0.320E+03   0.288E+02 -.330E+01 -.465E+02   0.172E-04 -.419E-05 -.171E-04
   -.227E+03 -.173E+03 0.228E+03   0.217E+03 0.210E+03 -.268E+03   0.101E+02 -.365E+02 0.393E+02   -.199E-04 0.431E-04 -.164E-04
   -.227E+03 0.173E+03 -.228E+03   0.217E+03 -.209E+03 0.267E+03   0.101E+02 0.365E+02 -.393E+02   0.853E-05 -.215E-04 0.107E-04
   -.227E+03 -.174E+03 0.228E+03   0.217E+03 0.210E+03 -.268E+03   0.102E+02 -.365E+02 0.393E+02   0.152E-04 -.626E-05 0.952E-05
   0.227E+03 0.173E+03 -.228E+03   -.217E+03 -.209E+03 0.268E+03   -.102E+02 0.364E+02 -.393E+02   -.671E-05 -.250E-04 0.156E-04
   0.180E+03 0.260E+03 -.274E+03   -.209E+03 -.257E+03 0.320E+03   0.290E+02 -.315E+01 -.464E+02   -.264E-04 0.257E-04 0.124E-04
   0.179E+03 -.260E+03 0.274E+03   -.208E+03 0.257E+03 -.320E+03   0.289E+02 0.314E+01 0.464E+02   -.173E-04 -.220E-04 0.269E-05
   -.179E+03 0.260E+03 -.274E+03   0.208E+03 -.257E+03 0.320E+03   -.289E+02 -.318E+01 -.464E+02   -.192E-06 -.251E-05 -.168E-05
   0.227E+03 -.174E+03 0.228E+03   -.217E+03 0.210E+03 -.268E+03   -.102E+02 -.364E+02 0.393E+02   0.170E-04 0.395E-04 -.107E-04
   -.227E+03 0.173E+03 -.228E+03   0.217E+03 -.209E+03 0.268E+03   0.102E+02 0.364E+02 -.393E+02   -.173E-04 -.274E-04 0.618E-05
   0.227E+03 -.173E+03 0.228E+03   -.217E+03 0.209E+03 -.268E+03   -.101E+02 -.365E+02 0.393E+02   -.855E-05 0.810E-05 -.448E-05
   -.178E+03 -.259E+03 0.274E+03   0.206E+03 0.256E+03 -.320E+03   -.288E+02 0.326E+01 0.464E+02   0.864E-05 -.121E-05 -.143E-04
   -.873E-01 0.158E+00 -.343E+00   -.426E-12 -.341E-12 -.568E-12   0.101E+00 -.115E+00 0.330E+00   0.324E-04 -.852E-05 0.698E-05

 POSITION                                       TOTAL-FORCE (eV/Angst)
     22.12999     23.91719      4.28749        -0.003148      0.002619     -0.001981
     22.87324     24.35378      6.34384         0.001383     -0.005964      0.000481
     22.12782     20.40638      9.37385        -0.001211      0.000569      0.000236
     14.65124     11.79757      5.94940         0.000345     -0.002146      0.001684
     13.91365      7.43003      2.07026        -0.001226      0.001629     -0.002796
      1.64535     19.75297      3.85990         0.001944      0.000550     -0.002504
     13.90955     12.23400      8.00647        -0.000139     -0.005407      0.002186
     14.65454      7.87366      4.12577        -0.002164      0.003348      0.003588
     10.60719     12.02397      4.54951         0.000859     -0.002098      0.002174
      2.38960     20.19191      5.91519         0.002277     -0.002229      0.000935
      1.65020     24.55956      9.79797         0.000308     -0.005133      0.002378
     10.61168      7.63528      5.52450        -0.003357     -0.001444     -0.002935
     22.86878     19.96302      7.31836         0.001409     -0.000254     -0.002163
      2.39383     24.12051      7.74236         0.002744      0.000675     -0.001689
      9.86961      8.07540      7.58033         0.000803      0.000694      0.001723
      9.86576     11.58372      2.49333        -0.002748      0.002115     -0.000949
     20.17733      1.08592      3.20920         0.003378     -0.002599     -0.002700
     20.69833      2.00514      0.92778        -0.004636     -0.001318      0.005552
     20.68452     17.67212      9.15456        -0.004848     -0.002517     -0.002346
     16.08292     14.53745      6.17803         0.001588     -0.001291      0.002828
     16.09853      5.14013      3.90655         0.002000     -0.001292      0.000214
      4.34630     18.37110      3.41170        -0.001280     -0.001847      0.005588
     16.60520     13.61806      8.45907        -0.003140     -0.002040      0.000189
     16.61723      6.05597      1.62391        -0.001272     -0.001204      0.005739
      7.90829     13.40332      5.00092        -0.001051      0.002070     -0.002073
      3.82147     17.45174      5.69177         0.004390     -0.003292     -0.000564
      3.82618      2.20817      4.38181         0.002043      0.003249      0.000589
      8.43137      5.33844      7.35762        -0.003176     -0.001495     -0.001764
     20.16562     18.58754      6.87203         0.000734      0.001543      0.002029
      4.34657      1.28918      6.66313        -0.000341      0.000659     -0.002148
      7.91001      6.25695      5.07657        -0.003331     -0.003175      0.003289
      8.42780     14.32012      2.71834        -0.002650      0.001778      0.001249
     19.13040      2.12713      3.35915        -0.000874      0.000625     -0.003442
     19.66033      3.04480      1.13886         0.003149     -0.002690     -0.002956
     19.64403     16.63376      8.94577         0.005608      0.001987      0.001935
     17.12110     15.57700      6.38842        -0.002510     -0.004138     -0.002615
     17.13869      4.10158      3.69750        -0.003456      0.000792      0.004165
      5.39563     17.33195      3.26425        -0.000658     -0.003790      0.003380
     17.65201     14.65948      8.60858         0.001713      0.001859     -0.003898
     17.66774      5.01776      1.47641        -0.000708      0.001458      0.002593
      6.85862     14.44255      5.14892         0.001128      0.000936     -0.006261
      4.86297     16.41413      5.48370        -0.003147      0.004842     -0.000275
      4.86539      3.24698      4.59195        -0.003790     -0.006640      0.005565
      7.38995      4.30111      7.14886         0.003552      0.002797      0.004399
     19.11478     17.54949      6.72472        -0.002908     -0.000290      0.003114
      5.39513      2.32908      6.81225         0.002836      0.003642     -0.005599
      6.85945      5.21871      4.92888         0.000067      0.000407      0.001723
      7.38906     15.35933      2.92824         0.000753     -0.002156      0.001502
     18.36815      2.17317      4.52109        -0.004601      0.002799     -0.001206
     19.42596      4.40685      7.06081         0.002741     -0.002598      0.001859
     19.40740     15.27314      3.02502        -0.000307     -0.001643     -0.004346
     17.35607     16.52566      5.39840         0.001775      0.000353      0.003124
     17.37519      3.15367      4.68815        -0.005130      0.002516      0.001213
      6.16034     17.70003      9.01500         0.001435     -0.000547     -0.001699
     18.41427     14.29274      2.85853         0.000656     -0.001446     -0.000379
     18.43219      5.38647      7.22695         0.001218     -0.001837      0.000432
      6.09433     14.48800      6.30963        -0.001241      0.001717     -0.002157
      5.09920     15.46667      6.47465        -0.001660      0.000131     -0.000198
      5.10054      4.19583      3.60225        -0.001885     -0.002440      0.001636
      7.15257      2.94033      1.22783         0.002401     -0.001228      0.001651
[...]
     21.34897      2.34631      6.79916         0.000481     -0.000074      0.003009
     21.33202     17.33330      3.28416         0.001889      0.002691      0.000123
     15.43204     14.46581      5.13826         0.000526      0.000639      0.004116
     15.45048      5.21454      4.94787         0.001332     -0.000161     -0.003340
      4.11627     19.60890      9.44356        -0.000958      0.004193     -0.003254
     16.37341     12.38009      2.42724        -0.000593      0.003405     -0.007394
     16.38581      7.29303      7.65545        -0.000057      0.000731     -0.002043
      8.14119     12.57959      5.88132         0.000856      0.003031     -0.002332
      3.16915     17.52285      6.73062         0.004062     -0.000080     -0.003548
      3.17527      2.13728      3.34200        -0.000159     -0.001250      0.004778
      9.08101      4.99722      1.48603         0.001330      0.002190      0.000438
     20.39761     19.41151      5.99174        -0.000444     -0.001186     -0.001091
      4.11294      0.05242      0.63184         0.000115      0.001334     -0.003375
      8.14146      7.08150      4.19673         0.001248      0.000151      0.000054
      9.07713     14.65966      8.58896         0.000837     -0.001389      0.002080
    total drift:                                0.014187      0.042853     -0.013826

  FREE ENERGIE OF THE ION-ELECTRON SYSTEM (eV)
  free  energy   TOTEN  =     -1178.90331575 eV

  energy  without entropy=    -1178.89613066  energy(sigma->0) =    -1178.89972321

 reached required accuracy - stopping structural energy minimisation
 writing wavefunctions

 total charge

[...]

 magnetization (x)

# of ion       s       p       d       tot
    1        0.003   0.012   0.000   0.015
    2        0.003   0.013   0.000   0.015
    3        0.003   0.012   0.000   0.015
    4       -0.003  -0.012   0.000  -0.015
    5       -0.003  -0.013   0.000  -0.015
    6        0.003   0.013   0.000   0.015
    7       -0.003  -0.013   0.000  -0.015
    8       -0.003  -0.012   0.000  -0.015
    9       -0.003  -0.013   0.000  -0.015
   10        0.003   0.012   0.000   0.015
   11        0.003   0.013   0.000   0.015
   12       -0.003  -0.013   0.000  -0.015
   13        0.003   0.013   0.000   0.015
   14        0.003   0.012   0.000   0.015
   15       -0.003  -0.012   0.000  -0.015
   16       -0.003  -0.012   0.000  -0.015
   17        0.000   0.001   0.000   0.001
   18        0.000   0.001   0.000   0.001
   19        0.000   0.001   0.000   0.001
   20       -0.000  -0.001   0.000  -0.001
   21       -0.000  -0.001   0.000  -0.001
   22        0.000   0.001   0.000   0.001
   23       -0.000  -0.001   0.000  -0.001
   24       -0.000  -0.001   0.000  -0.001
   25       -0.000  -0.001   0.000  -0.001
   26        0.000   0.001   0.000   0.001
   27        0.000   0.001   0.000   0.001
   28       -0.000  -0.001   0.000  -0.001
   29        0.000   0.001   0.000   0.001
   30        0.000   0.001   0.000   0.001
   31       -0.000  -0.001   0.000  -0.001
   32       -0.000  -0.001   0.000  -0.001
   33       -0.000  -0.000   0.000  -0.000
   34       -0.000  -0.000   0.000  -0.000
   35       -0.000  -0.000   0.000  -0.000
   36        0.000   0.000   0.000   0.000
   37        0.000   0.000   0.000   0.000
   38       -0.000  -0.000   0.000  -0.000
   39        0.000   0.000   0.000   0.000
   40        0.000   0.000   0.000   0.000
   41        0.000   0.000   0.000   0.000
   42       -0.000  -0.000   0.000  -0.000
   43       -0.000  -0.000   0.000  -0.000
   44        0.000   0.000   0.000   0.000
   45       -0.000  -0.000   0.000  -0.000
   46       -0.000  -0.000   0.000  -0.000
   47        0.000   0.000   0.000   0.000
   48        0.000   0.000   0.000   0.000
   49        0.000   0.000   0.000   0.000
   50        0.000   0.000   0.000   0.000
   51        0.000   0.000   0.000   0.000
   52       -0.000  -0.000   0.000  -0.000
   53       -0.000  -0.000   0.000  -0.000
   54        0.000   0.000   0.000   0.000
   55       -0.000  -0.000   0.000  -0.000
   56       -0.000  -0.000   0.000  -0.000
   57       -0.000  -0.000   0.000  -0.000
   58        0.000   0.000   0.000   0.000
   59        0.000   0.000   0.000   0.000
   60       -0.000  -0.000   0.000  -0.000
[...]
  142        0.000   0.001   0.000   0.001
  143        0.000   0.001   0.000   0.001
  144       -0.000  -0.001   0.000  -0.001
  145       -0.000  -0.001   0.000  -0.001
  146        0.000   0.001   0.000   0.001
  147       -0.000  -0.001   0.000  -0.001
  148       -0.000  -0.001   0.000  -0.001
  149       -0.000  -0.001   0.000  -0.001
  150        0.000   0.001   0.000   0.001
  151        0.000   0.001   0.000   0.001
  152       -0.000  -0.001   0.000  -0.001
  153        0.000   0.001   0.000   0.001
  154        0.000   0.001   0.000   0.001
  155       -0.000  -0.001   0.000  -0.001
  156       -0.000  -0.001   0.000  -0.001
tot         -0.000  -0.000   0.000  -0.000