 vasp.5.4.4.18Apr17-6-g9f103f2a35 (build May 22 2020 17:00:04) complex

 executed on           IFC15_impi date 2020.10.03  19:11:08

 INCAR:
 POTCAR:    PAW_PBE C 08Apr2002
 POTCAR:    PAW_PBE Co 02Aug2007
 POTCAR:    PAW_PBE H 15Jun2001
 POTCAR:    PAW_PBE N 08Apr2002
 POTCAR:    PAW_PBE O 08Apr2002

 POTCAR:    PAW_PBE C 08Apr2002
   VRHFIN =C: s2p2

   TITEL  = PAW_PBE C 08Apr2002
   POMASS =   12.011; ZVAL   =    4.000    mass and valenz
   ENMAX  =  400.000; ENMIN  =  300.000 eV

 POTCAR:    PAW_PBE Co 02Aug2007
   VRHFIN =Co: d8 s1

   TITEL  = PAW_PBE Co 02Aug2007
   POMASS =   58.933; ZVAL   =    9.000    mass and valenz
   ENMAX  =  267.968; ENMIN  =  200.976 eV

 POTCAR:    PAW_PBE H 15Jun2001
   VRHFIN =H: ultrasoft test

   TITEL  = PAW_PBE H 15Jun2001
   POMASS =    1.000; ZVAL   =    1.000    mass and valenz
   ENMAX  =  250.000; ENMIN  =  200.000 eV

 POTCAR:    PAW_PBE N 08Apr2002
   VRHFIN =N: s2p3

[...]

 POTCAR:    PAW_PBE O 08Apr2002
   VRHFIN =O: s2p4

   TITEL  = PAW_PBE O 08Apr2002
   POMASS =   16.000; ZVAL   =    6.000    mass and valenz
   ENMAX  =  400.000; ENMIN  =  300.000 eV

 Optimization of the real space projectors (new method)

 maximal supplied QI-value         = 25.13
 optimisation between [QCUT,QGAM] = [ 12.32, 24.88] = [ 42.47,173.37] Ry
 Optimized for a Real-space Cutoff    1.06 Angstroem

   l    n(q)    QCUT    max X(q) W(low)/X(q) W(high)/X(q)  e(spline)
   0      8    12.315   115.676    0.34E-03    0.18E-03    0.23E-06
   0      8    12.315    87.132    0.34E-03    0.18E-03    0.22E-06
   1      7    12.315     4.429    0.45E-03    0.12E-03    0.18E-06
   1      7    12.315     2.733    0.35E-03    0.97E-04    0.15E-06
 Optimization of the real space projectors (new method)

[...]

   l    n(q)    QCUT    max X(q) W(low)/X(q) W(high)/X(q)  e(spline)
   0      9    12.315    79.467    0.14E-03    0.22E-04    0.37E-06
   0      9    12.315    66.151    0.14E-03    0.23E-04    0.36E-06
   1      8    12.315    22.077    0.30E-03    0.54E-03    0.45E-06
   1      8    12.315    15.894    0.30E-03    0.55E-03    0.45E-06
 Optimization of the real space projectors (new method)

 maximal supplied QI-value         = 24.76
 optimisation between [QCUT,QGAM] = [ 12.38, 25.00] = [ 42.90,175.06] Ry
 Optimized for a Real-space Cutoff    1.13 Angstroem

   l    n(q)    QCUT    max X(q) W(low)/X(q) W(high)/X(q)  e(spline)
   0      8    12.378    20.381    0.16E-03    0.54E-05    0.27E-06
   0      8    12.378    15.268    0.17E-03    0.61E-05    0.29E-06
   1      8    12.378     5.964    0.38E-03    0.23E-03    0.28E-06
   1      8    12.378     5.382    0.33E-03    0.20E-03    0.25E-06
  PAW_PBE C 08Apr2002                   :
  PAW_PBE Co 02Aug2007                  :
  PAW_PBE H 15Jun2001                   :
  PAW_PBE N 08Apr2002                   :
  PAW_PBE O 08Apr2002                   :

 POSCAR:  Co_F
  positions in direct lattice
  velocities in cartesian coordinates
 exchange correlation table for  LEXCH =        8
   RHO(1)=    0.500       N(1)  =     2000
   RHO(2)=  100.500       N(2)  =     4000

 ion  position               nearest neighbor table
   1  0.748  0.941  0.055- 107 1.08 117 1.34  65 1.41
   2  0.675  0.922  0.353- 112 1.08 118 1.35  65 1.40
   3  0.926  0.785  0.903- 116 1.08 119 1.35  66 1.40
   4  0.757  0.443  0.529- 110 1.08 120 1.34  67 1.41
   5  0.649  0.291  0.075- 111 1.08 121 1.34  68 1.40
   6  0.333  0.824  0.075- 115 1.08 122 1.35  69 1.40
   7  0.834  0.423  0.825- 101 1.08 123 1.35  67 1.40
   8  0.580  0.287  0.378- 113 1.08 124 1.35  68 1.40
   9  0.345  0.454  0.297- 114 1.08 125 1.34  70 1.40
  10  0.257  0.803  0.370- 104 1.08 126 1.34  69 1.41
  11  0.148  0.955  0.825- 105 1.08 127 1.34  71 1.40
  12  0.176  0.324  0.547- 102 1.08 128 1.35  72 1.40
  13  0.843  0.792  0.603- 108 1.08 129 1.34  66 1.40
  14  0.079  0.960  0.522- 109 1.08 130 1.35  71 1.40
  15  0.249  0.305  0.845- 106 1.08 131 1.34  72 1.41
  16  0.427  0.461  0.997- 103 1.08 132 1.35  70 1.40
  17  0.528  0.022  0.068- 141 1.23 133 1.41  33 1.48
  18  0.630  0.013  0.401- 142 1.23 133 1.42  34 1.48
  19  0.947  0.703  0.581- 143 1.23 134 1.42  35 1.47
  20  0.875  0.513  0.885- 144 1.23 135 1.42  36 1.48
  21  0.547  0.201  0.070- 145 1.23 136 1.42  37 1.47
  22  0.473  0.723  0.347- 146 1.23 137 1.41  38 1.48
  23  0.973  0.524  0.552- 147 1.23 135 1.41  39 1.48
  24  0.662  0.193  0.400- 148 1.23 136 1.41  40 1.47
  25  0.338  0.554  0.987- 149 1.23 138 1.41  41 1.47
  26  0.374  0.734  0.014- 150 1.23 137 1.42  42 1.48
  27  0.046  0.045  0.830- 151 1.23 139 1.42  43 1.47
  28  0.131  0.233  0.500- 152 1.23 140 1.42  44 1.48
  29  0.837  0.692  0.912- 153 1.23 134 1.41  45 1.47
  30  0.161  0.053  0.500- 154 1.23 139 1.41  46 1.47
  31  0.029  0.224  0.833- 155 1.23 140 1.41  47 1.48
  32  0.447  0.544  0.318- 156 1.23 138 1.42  48 1.47
  33  0.526  0.067  0.075-  49 1.39  73 1.41  17 1.48
  34  0.633  0.059  0.399-  50 1.39  73 1.41  18 1.48
  35  0.953  0.657  0.577-  51 1.39  74 1.41  19 1.47
  36  0.867  0.559  0.890-  52 1.39  75 1.41  20 1.48
  37  0.542  0.155  0.073-  53 1.39  76 1.41  21 1.47
  38  0.473  0.677  0.334-  54 1.39  77 1.41  22 1.48
  39  0.973  0.569  0.565-  55 1.39  75 1.41  23 1.48
  40  0.653  0.147  0.397-  56 1.39  76 1.41  24 1.47
  41  0.345  0.600  0.998-  57 1.39  78 1.41  25 1.47
  42  0.367  0.688  0.009-  58 1.39  77 1.41  26 1.48
  43  0.042  0.091  0.827-  59 1.39  79 1.41  27 1.47
  44  0.134  0.187  0.502-  60 1.39  80 1.41  28 1.48
  45  0.845  0.646  0.901-  61 1.39  74 1.41  29 1.47
  46  0.153  0.099  0.503-  62 1.39  79 1.41  30 1.47
  47  0.027  0.179  0.826-  63 1.39  80 1.41  31 1.48
  48  0.454  0.589  0.322-  64 1.39  78 1.41  32 1.47
  49  0.467  0.093  0.920-  88 1.08  33 1.39  53 1.40
  50  0.681  0.077  0.559-  99 1.09  34 1.39  56 1.40
  51  0.020  0.640  0.419-  93 1.09  35 1.39  55 1.40
  52  0.818  0.575  0.053-  90 1.09  36 1.39  61 1.40
  53  0.474  0.137  0.919-  98 1.09  37 1.39  49 1.40
  54  0.530  0.650  0.485-  96 1.08  38 1.39  64 1.40
  55  0.030  0.597  0.414-  86 1.08  39 1.39  51 1.40
  56  0.692  0.121  0.558-  87 1.08  40 1.39  50 1.40
  57  0.306  0.627  0.841-  95 1.08  41 1.39  58 1.40
  58  0.318  0.671  0.846-  91 1.09  42 1.39  57 1.40
  59  0.974  0.109  0.982-  92 1.09  43 1.39  63 1.40
  60  0.182  0.169  0.341-  85 1.09  44 1.39  62 1.40
[...]
 142  0.665  0.990  0.543-  18 1.23
 143  0.002  0.727  0.447-  19 1.23
 144  0.843  0.489  0.025-  20 1.23
 145  0.488  0.224  0.935-  21 1.23
 146  0.518  0.738  0.492-  22 1.23
 147  0.019  0.509  0.407-  23 1.23
 148  0.706  0.210  0.542-  24 1.23
 149  0.298  0.539  0.841-  25 1.23
 150  0.342  0.758  0.874-  26 1.23
 151  0.987  0.022  0.965-  27 1.23
 152  0.167  0.256  0.357-  28 1.23
 153  0.798  0.707  0.058-  29 1.23
 154  0.204  0.037  0.358-  30 1.23
 155  0.983  0.241  0.974-  31 1.23
 156  0.503  0.520  0.452-  32 1.23

IMPORTANT INFORMATION: All symmetrisations will be switched off!
NOSYMM: (Re-)initialisation of all symmetry stuff for point group C_1.

 KPOINTS: MANUAL

Automatic generation of k-mesh.
Space group operators:
 irot       det(A)        alpha          n_x          n_y          n_z        tau_x        tau_y        tau_z
    1     1.000000     0.000000     1.000000     0.000000     0.000000     0.000000     0.000000     0.000000

 Subroutine IBZKPT returns following result:

 Found     10 irreducible k-points:

 Following reciprocal coordinates:
            Coordinates               Weight
  0.000000  0.000000  0.000000      1.000000
  0.250000 -0.000000 -0.000000      2.000000
  0.500000 -0.000000 -0.000000      1.000000
  0.000000 -0.000000  0.250000      2.000000
  0.250000  0.000000  0.250000      2.000000
  0.500000 -0.000000  0.250000      2.000000
 -0.250000 -0.000000  0.250000      2.000000
  0.000000 -0.000000  0.500000      1.000000
  0.250000 -0.000000  0.500000      2.000000
  0.500000  0.000000  0.500000      1.000000

 Following cartesian coordinates:
            Coordinates               Weight
  0.000000  0.000000  0.000000      1.000000
  0.035786  0.000011 -0.000007      2.000000
  0.071572  0.000021 -0.000015      1.000000
 -0.000015 -0.001746  0.034832      2.000000
  0.035771 -0.001736  0.034824      2.000000
  0.071557 -0.001725  0.034817      2.000000
 -0.035801 -0.001757  0.034839      2.000000
 -0.000030 -0.003493  0.069663      1.000000
  0.035756 -0.003482  0.069656      2.000000
  0.071542 -0.003471  0.069649      1.000000

 SYSTEM =  flex_MOF
 POSCAR =   Co_F

 Startparameter for this run:
   NWRITE =      2    write-flag & timer
   PREC   = normal    normal or accurate (medium, high low for compatibility)
   ISTART =      0    job   : 0-new  1-cont  2-samecut
   ICHARG =      2    charge: 1-file 2-atom 10-const
   ISPIN  =      2    spin polarized calculation?
   LNONCOLLINEAR =      F non collinear calculations
   LSORBIT =      F    spin-orbit coupling
   INIWAV =      1    electr: 0-lowe 1-rand  2-diag
   LASPH  =      F    aspherical Exc in radial PAW
   METAGGA=      F    non-selfconsistent MetaGGA calc.

 Electronic Relaxation 1
   ENCUT  =  600.0 eV  44.10 Ry    6.64 a.u.  13.95 64.00 14.39*2*pi/ulx,y,z
   ENINI  =  600.0     initial cutoff
   ENAUG  =  644.9 eV  augmentation charge cutoff
   NELM   =     80;   NELMIN=  8; NELMDL= -5     # of ELM steps
   EDIFF  = 0.1E-05   stopping-criterion for ELM
   LREAL  =      T    real-space projection
   NLSPLINE    = F    spline interpolate recip. space projectors
   LCOMPAT=      F    compatible to vasp.4.4
   GGA_COMPAT  = T    GGA compatible to vasp.4.4-vasp.4.6
   LMAXPAW     = -100 max onsite density
   LMAXMIX     =    2 max onsite mixed and CHGCAR
   VOSKOWN=      0    Vosko Wilk Nusair interpolation
   ROPT   =   -0.00050  -0.00050  -0.00050  -0.00050
   ROPT   =   -0.00050
 Ionic relaxation
   EDIFFG = -.1E-01   stopping-criterion for IOM
   NSW    =    500    number of steps for IOM
   NBLOCK =      1;   KBLOCK =    500    inner block; outer block
   IBRION =      2    ionic relax: 0-MD 1-quasi-New 2-CG
   NFREE  =      1    steps in history (QN), initial steepest desc. (CG)
   ISIF   =      4    stress and relaxation
   IWAVPR =     11    prediction:  0-non 1-charg 2-wave 3-comb
   ISYM   =      0    0-nonsym 1-usesym 2-fastsym
   LCORR  =      T    Harris-Foulkes like correction to forces

   POTIM  = 0.5000    time-step for ionic-motion
   TEIN   =    0.0    initial temperature
   TEBEG  =    0.0;   TEEND  =   0.0 temperature during run
   SMASS  =  -3.00    Nose mass-parameter (am)
   estimated Nose-frequenzy (Omega)   =  0.10E-29 period in steps =****** mass=  -0.112E-26a.u.
   SCALEE = 1.0000    scale energy and forces
   NPACO  =    256;   APACO  = 16.0  distance and # of slots for P.C.
   PSTRESS=    0.0 pullay stress

  Mass of Ions in am
   POMASS =  12.01 58.93  1.00 14.00 16.00
  Ionic Valenz
   ZVAL   =   4.00  9.00  1.00  5.00  6.00
  Atomic Wigner-Seitz radii
  virtual crystal weights
   VCA    =   1.00  1.00  1.00  1.00  1.00
   NELECT =     604.0000    total number of electrons
   NUPDOWN=      -1.0000    fix difference up-down

 DOS related values:
[...]
  110        set_charge                            1.072589                            1   3
  111          soft_charge                           1.023081                          1   4
  112            fftwav_mpi                            0.908963                      200   5
  113              fft3d_mpi                             0.818427                    200   6
  114                fftbas_plan_mpi                       0.817684                  200   7
  115                  dfftw_execute                         0.383306                600   8
  116                  map_forward                           0.325495                400   8
  117                    map_gather                            0.076544              200   9
  118                    m_alltoallv_z                         0.078078              200   9
  119                    map_scatter                           0.101681              200   9
  120            pw_charge                             0.098021                      200   5
  121            fft3d_mpi                             0.005998                        2   5
  122              fftbas_plan_mpi                       0.005415                      2   6
  123                dfftw_execute                         0.001828                    6   7
  124                map_backward                          0.002475                    4   7
  125                  map_gather                            0.000887                  4   8
  126                  m_alltoallv_z                         0.001480                  4   8
  127                  map_scatter                           0.000060                  4   8
  128          depsum                                0.004430                          1   4
  129          fft3d_mpi                             0.005760                          2   4
  130            fftbas_plan_mpi                       0.005555                        2   5
  131              dfftw_execute                         0.001271                      6   6
  132              map_backward                          0.003004                      4   6
  133                map_gather                            0.000240                    2   7
  134                m_alltoallv_z                         0.002507                    2   7
  135                map_scatter                           0.000222                    2   7
  136        forloc                                0.077969                            1   3
  137        fornlr                                5.238888                            1   3
  138          rspher_all                            0.093825                          3   4
  139          phaser                                0.448389                         30   4
  140          rpro_isp                              4.481853                         30   4
  141            fftwav_mpi                            3.214342                      720   5
  142              fft3d_mpi                             2.887370                    720   6
  143                fftbas_plan_mpi                       2.884868                  720   7
  144                  dfftw_execute                         1.361217               2160   8
  145                  map_forward                           1.137918               1440   8
  146                    map_gather                            0.265038              720   9
  147                    m_alltoallv_z                         0.273818              720   9
  148                    map_scatter                           0.360111              720   9
  149            rpromu                                1.259420                      180   5
  150              crrexp_mul_wave                       0.639380                 112320   6
  151              rpromu_gemm                           0.407884                  28080   6
  152        fordep                                0.199294                            1   3
  153          setdij_                               0.198772                          6   4
  154        setdij_                               0.658292                           20   3
  155        set_dd_paw                            0.053758                            1   3
  156        strkin                                0.020814                            1   3
  157        strelo                                0.004232                            1   3
  158        strnlr                               15.590607                            1   3
  159          rspher_all                            0.284421                          9   4
  160          phaser                                1.350451                         90   4
  161          rpro_isp                             13.398693                         90   4
  162            fftwav_mpi                            9.623546                     2160   5
  163              fft3d_mpi                             8.663394                   2160   6
  164                fftbas_plan_mpi                       8.655538                 2160   7
  165                  dfftw_execute                         4.082045               6480   8
  166                  map_forward                           3.413486               4320   8
  167                    map_gather                            0.797118             2160   9
  168                    m_alltoallv_z                         0.818498             2160   9
  169                    map_scatter                           1.082421             2160   9
  170            rpromu                                3.756323                      540   5
  171              crrexp_mul_wave                       1.914507                 336960   6
  172              rpromu_gemm                           1.217406                  84240   6
  173        fft3d_mpi                             0.067817                           22   3
  174          fftbas_plan_mpi                       0.065141                         22   4
  175            dfftw_execute                         0.013468                       66   5
  176            map_forward                           0.017927                       20   5
  177              map_gather                            0.000813                     10   6
  178              m_alltoallv_z                         0.015777                     10   6
  179              map_scatter                           0.001157                     10   6
  180            map_backward                          0.017745                       24   5
  181              map_gather                            0.001385                     12   6
  182              m_alltoallv_z                         0.014767                     12   6
  183              map_scatter                           0.001384                     12   6
  184        forhar                                0.139527                            2   3
  185        strehar                               0.003912                            1   3
  186        chggra                                0.013515                            1   3
  187          fft3d_mpi                             0.010537                          3   4
  188            fftbas_plan_mpi                       0.010162                        3   5
  189              dfftw_execute                         0.001847                      9   6
  190              map_forward                           0.004663                      4   6
  191                map_gather                            0.000134                    2   7
  192                m_alltoallv_z                         0.004287                    2   7
  193                map_scatter                           0.000211                    2   7
  194              map_backward                          0.001569                      2   6
  195                map_gather                            0.000094                    1   7
  196                m_alltoallv_z                         0.001271                    1   7
  197                map_scatter                           0.000185                    1   7
  198        brmix                                 0.017122                            1   3
  199          brpre                                 0.000077                          2   4
  200          setg0                                 0.000997                          1   4
  201          broyd                                 0.013252                          1   4
  202            brget                                 0.002072                      366   5
  203            brsav                                 0.000779                      163   5

 Flat profile

 eddav                                1044.900535          50
 total_time                            374.054564           1
 dfftw_execute                         253.202236      397659
 redis_pw                              198.901357      120837
 orth1                                 143.356162      131037
 redis_proj                             80.564798      152456
 fftbas_plan_mpi                        73.521363      132555
 map_scatter                            68.474749      132739
 crrexp_mul_work_add                    63.286974     6801444
 racc0                                  60.628286       43599
 map_gather                             58.298840      132739
 m_alltoallv_z                          57.026064      132739
 fftwav_mpi                             53.934344       87518
 rpro1                                  39.636768       31599
 map_forward                            37.716818      176386
 vhamil                                 31.541166       43599
 crrexp_mul_wave                        30.887549     5416164
 lincom                                 21.392816        1020
 phaser                                 16.875372        1130
 force_and_stress                        9.047193           1
 w1_copy                                 8.048044      130797
 fftext_mpi                              6.566661       43599
 eccp                                    6.397945       12000
 pw_charge                               4.567091        9200
 kinhamil                                3.833285       43599
 setdij_                                 2.447488          74
 overl                                   2.277024       75218
 apply_precond                           2.167399       31599
 set_charge                              1.830857          46
 rpromu_gemm                             1.790818      121680
 overl1                                  1.617212       43599
 set_dd_paw                              1.476407          48
 setup_precond                           1.395482       12000
 rpromu                                  0.910699         780
 map_backward                            0.844783       88720
 fft3d_mpi                               0.710810      132553
 hamiltmu                                0.600791       43599
 strnlr                                  0.557042           1
 soft_charge                             0.536226          46
 rspher_all                              0.426932          14
 choleski                                0.403777          20
 orthch                                  0.344453           1
 raccmu_                                 0.270373       43599
 broyd                                   0.247310          46
 fornlr                                  0.214821           1
 depsum                                  0.201352          46
 w1_projall                              0.196832       31599
 forhar                                  0.139527           2
 brmix                                   0.112139          46
 forloc                                  0.077969           1
 setg0                                   0.048703          48
 truncate_high_frequency_w1              0.044027       55599
 brgrid                                  0.032935           1
 rpro_isp                                0.029222         130
 brget                                   0.028458        5964
 strkin                                  0.020814           1
 brsav                                   0.013310        1386
 brpre                                   0.004817          92
 strelo                                  0.004232           1
 strehar                                 0.003912           1
 chggra                                  0.002978           1
 fordep                                  0.000522           1
 redis_pw_over_bands                     0.000001           1
  summed up times    2768.69343400002

 Accumulative profile

 total_time                           2768.693434           1
 eddav                                2302.246927          50
 fft3d_mpi                             549.752886      132553
 fftbas_plan_mpi                       549.084855      132555
 fftwav_mpi                            433.183311       87518
 hamiltmu                              334.260198       43599
 dfftw_execute                         253.202236      397659
 redis_pw                              198.901357      120837
 kinhamil                              176.315397       43599
 fftext_mpi                            172.482112       43599
 map_forward                           161.400609      176386
 orth1                                 143.356162      131037
 raccmu_                               125.802845       43599
 racc0                                 123.915260       43599
 redis_proj                             80.564798      152456
 map_scatter                            68.474749      132739
 w1_projall                             67.947920       31599
 rpro1                                  67.751087       31599
 crrexp_mul_work_add                    63.286974     6801444
 map_backward                           60.960647       88720
 map_gather                             58.298840      132739
 m_alltoallv_z                          57.026064      132739
 set_charge                             49.778606          46
 soft_charge                            47.488328          46
 force_and_stress                       32.205528           1
 vhamil                                 31.541166       43599
 crrexp_mul_wave                        30.887549     5416164
 lincom                                 21.392816        1020
 rpro_isp                               19.442223         130
 phaser                                 16.875372        1130
 strnlr                                 15.590607           1
 w1_copy                                 8.048044      130797
 eccp                                    6.397945       12000
 rpromu                                  5.474747         780
 fornlr                                  5.238888           1
 pw_charge                               4.567091        9200
 setdij_                                 2.447488          74
 overl                                   2.277024       75218
 orthch                                  2.224040           1
 apply_precond                           2.167399       31599
 rpromu_gemm                             1.790818      121680
 overl1                                  1.617212       43599
 set_dd_paw                              1.476407          48
 setup_precond                           1.395482       12000
 brmix                                   0.454737          46
 rspher_all                              0.426932          14
 choleski                                0.403777          20
 broyd                                   0.289078          46
 depsum                                  0.201352          46
 fordep                                  0.199294           1
 forhar                                  0.139527           2
 forloc                                  0.077969           1
 setg0                                   0.048703          48
 truncate_high_frequency_w1              0.044027       55599
 brgrid                                  0.032935           1
 brget                                   0.028458        5964
 strkin                                  0.020814           1
 chggra                                  0.013515           1
 brsav                                   0.013310        1386
 brpre                                   0.004817          92
 strelo                                  0.004232           1
 strehar                                 0.003912           1
 redis_pw_over_bands                     0.000001           1

Profiling took   8.213035  4.779224  0.012733  0.012373 seconds
Profiling took   9.467419 seconds