 vasp.6.0.8 29Jun18 (build Mar 14 2019 11:44:20) complex

 executed on             LinuxIFC date 2020.12.29  12:23:59

 INCAR:
 POTCAR:    PAW_PBE C 08Apr2002
 POTCAR:    PAW_PBE Co 02Aug2007
 POTCAR:    PAW_PBE H 15Jun2001
 POTCAR:    PAW_PBE N 08Apr2002
 POTCAR:    PAW_PBE O 08Apr2002
 POTCAR:    PAW_PBE C 08Apr2002
   VRHFIN =C: s2p2

   TITEL  = PAW_PBE C 08Apr2002
   POMASS =   12.011; ZVAL   =    4.000    mass and valenz
   ENMAX  =  400.000; ENMIN  =  300.000 eV

 POTCAR:    PAW_PBE Co 02Aug2007
   VRHFIN =Co: d8 s1

   TITEL  = PAW_PBE Co 02Aug2007
   POMASS =   58.933; ZVAL   =    9.000    mass and valenz
   ENMAX  =  267.968; ENMIN  =  200.976 eV

 POTCAR:    PAW_PBE H 15Jun2001
   VRHFIN =H: ultrasoft test

   TITEL  = PAW_PBE H 15Jun2001
   POMASS =    1.000; ZVAL   =    1.000    mass and valenz
   ENMAX  =  250.000; ENMIN  =  200.000 eV

 POTCAR:    PAW_PBE N 08Apr2002
   VRHFIN =N: s2p3

[...]

 POTCAR:    PAW_PBE O 08Apr2002
   VRHFIN =O: s2p4

   TITEL  = PAW_PBE O 08Apr2002
   POMASS =   16.000; ZVAL   =    6.000    mass and valenz
   ENMAX  =  400.000; ENMIN  =  300.000 eV

 Optimization of the real space projectors (new method)

 maximal supplied QI-value         = 25.13
 optimisation between [QCUT,QGAM] = [ 12.32, 24.88] = [ 42.47,173.37] Ry
 Optimized for a Real-space Cutoff    1.06 Angstroem

   l    n(q)    QCUT    max X(q) W(low)/X(q) W(high)/X(q)  e(spline)
   0      8    12.315   115.676    0.34E-03    0.18E-03    0.23E-06
   0      8    12.315    87.132    0.34E-03    0.18E-03    0.22E-06
   1      7    12.315     4.429    0.45E-03    0.12E-03    0.18E-06
   1      7    12.315     2.733    0.35E-03    0.97E-04    0.15E-06
 Optimization of the real space projectors (new method)

[...]

   l    n(q)    QCUT    max X(q) W(low)/X(q) W(high)/X(q)  e(spline)
   0      9    12.315    79.467    0.14E-03    0.22E-04    0.37E-06
   0      9    12.315    66.151    0.14E-03    0.23E-04    0.36E-06
   1      8    12.315    22.077    0.30E-03    0.54E-03    0.45E-06
   1      8    12.315    15.894    0.30E-03    0.55E-03    0.45E-06
 Optimization of the real space projectors (new method)

 maximal supplied QI-value         = 24.76
 optimisation between [QCUT,QGAM] = [ 12.38, 25.00] = [ 42.90,175.06] Ry
 Optimized for a Real-space Cutoff    1.13 Angstroem

   l    n(q)    QCUT    max X(q) W(low)/X(q) W(high)/X(q)  e(spline)
   0      8    12.378    20.381    0.16E-03    0.54E-05    0.27E-06
   0      8    12.378    15.268    0.17E-03    0.61E-05    0.29E-06
   1      8    12.378     5.964    0.38E-03    0.23E-03    0.28E-06
   1      8    12.378     5.382    0.33E-03    0.20E-03    0.25E-06
  PAW_PBE C 08Apr2002                   :
  PAW_PBE Co 02Aug2007                  :
  PAW_PBE H 15Jun2001                   :
  PAW_PBE N 08Apr2002                   :
  PAW_PBE O 08Apr2002                   :

 POSCAR:  Co_F
  positions in direct lattice
  velocities in cartesian coordinates
 exchange correlation table for  LEXCH =        8
   RHO(1)=    0.500       N(1)  =     2000
   RHO(2)=  100.500       N(2)  =     4000

 ion  position               nearest neighbor table
   1  0.707  0.939  0.046- 107 1.08 117 1.34  65 1.41
   2  0.639  0.917  0.341- 112 1.08 118 1.36  65 1.40
   3  0.942  0.784  0.895- 116 1.08 119 1.35  66 1.40
   4  0.794  0.439  0.546- 110 1.08 120 1.34  67 1.41
   5  0.630  0.291  0.096- 111 1.08 121 1.34  68 1.40
   6  0.361  0.829  0.059- 115 1.08 122 1.36  69 1.40
   7  0.861  0.417  0.841- 101 1.08 123 1.36  67 1.40
   8  0.559  0.284  0.395- 113 1.08 124 1.35  68 1.40
   9  0.370  0.455  0.303- 114 1.08 125 1.34  70 1.40
  10  0.294  0.807  0.354- 104 1.08 126 1.34  69 1.41
  11  0.131  0.955  0.803- 105 1.08 127 1.34  71 1.40
  12  0.140  0.329  0.558- 102 1.08 128 1.36  72 1.40
  13  0.870  0.791  0.596- 108 1.08 129 1.34  66 1.40
  14  0.058  0.962  0.505- 109 1.08 130 1.35  71 1.40
  15  0.207  0.307  0.853- 106 1.08 131 1.34  72 1.41
  16  0.443  0.462  0.005- 103 1.08 132 1.35  70 1.40
  17  0.490  0.021  0.063- 141 1.23 133 1.41  33 1.47
  18  0.572  0.007  0.396- 142 1.23 133 1.42  34 1.48
  19  0.988  0.702  0.582- 143 1.23 134 1.42  35 1.47
  20  0.929  0.507  0.896- 144 1.23 135 1.42  36 1.47
  21  0.513  0.202  0.082- 145 1.23 136 1.42  37 1.47
  22  0.511  0.725  0.338- 146 1.23 137 1.41  38 1.47
  23  0.011  0.521  0.563- 147 1.23 135 1.41  39 1.47
  24  0.603  0.188  0.414- 148 1.23 136 1.41  40 1.47
  25  0.398  0.558  0.987- 149 1.23 138 1.41  41 1.47
  26  0.429  0.739  0.005- 150 1.23 137 1.42  42 1.47
  27  0.013  0.045  0.818- 151 1.23 139 1.42  43 1.47
  28  0.071  0.239  0.503- 152 1.23 140 1.42  44 1.48
  29  0.898  0.688  0.913- 153 1.23 134 1.41  45 1.47
  30  0.102  0.058  0.486- 154 1.23 139 1.41  46 1.47
  31  0.990  0.225  0.836- 155 1.23 140 1.41  47 1.47
  32  0.488  0.544  0.319- 156 1.23 138 1.42  48 1.47
  33  0.485  0.067  0.075-  49 1.38  73 1.40  17 1.47
  34  0.581  0.054  0.398-  50 1.39  73 1.41  18 1.48
  35  0.997  0.655  0.581-  51 1.38  74 1.41  19 1.47
  36  0.920  0.554  0.898-  52 1.39  75 1.41  20 1.47
  37  0.504  0.155  0.081-  53 1.38  76 1.41  21 1.47
  38  0.515  0.679  0.326-  54 1.38  77 1.40  22 1.47
  39  0.015  0.567  0.575-  55 1.38  75 1.40  23 1.47
  40  0.601  0.142  0.405-  56 1.38  76 1.40  24 1.47
  41  0.400  0.604  0.996-  57 1.38  78 1.40  25 1.47
  42  0.420  0.692  0.003-  58 1.39  77 1.41  26 1.47
  43  0.004  0.091  0.818-  59 1.38  79 1.41  27 1.47
  44  0.080  0.193  0.502-  60 1.39  80 1.41  28 1.48
  45  0.900  0.642  0.904-  61 1.38  74 1.40  29 1.47
  46  0.101  0.104  0.495-  62 1.38  79 1.41  30 1.47
  47  0.985  0.179  0.824-  63 1.38  80 1.40  31 1.47
  48  0.497  0.591  0.319-  64 1.38  78 1.41  32 1.47
  49  0.431  0.095  0.923-  88 1.08  33 1.38  53 1.40
  50  0.621  0.070  0.560-  99 1.09  34 1.39  56 1.40
  51  0.060  0.639  0.424-  93 1.09  35 1.38  55 1.40
  52  0.880  0.570  0.060-  90 1.09  36 1.39  61 1.40
  53  0.441  0.139  0.924-  98 1.09  37 1.38  49 1.40
  54  0.569  0.651  0.478-  96 1.08  38 1.38  64 1.40
  55  0.069  0.595  0.423-  86 1.08  39 1.38  51 1.40
  56  0.632  0.114  0.562-  87 1.08  40 1.38  50 1.40
  57  0.368  0.632  0.839-  95 1.08  41 1.38  58 1.40
  58  0.380  0.677  0.840-  91 1.09  42 1.39  57 1.40
  59  0.940  0.107  0.975-  92 1.09  43 1.38  63 1.40
  60  0.120  0.177  0.339-  85 1.09  44 1.39  62 1.40
[...]
 142  0.595  0.982  0.536-  18 1.23
 143  0.039  0.727  0.446-  19 1.23
 144  0.906  0.482  0.036-  20 1.23
 145  0.461  0.227  0.947-  21 1.23
 146  0.545  0.739  0.483-  22 1.23
 147  0.046  0.507  0.418-  23 1.23
 148  0.623  0.203  0.560-  24 1.23
 149  0.378  0.543  0.840-  25 1.23
 150  0.406  0.764  0.864-  26 1.23
 151  0.962  0.019  0.953-  27 1.23
 152  0.095  0.264  0.363-  28 1.23
 153  0.877  0.703  0.060-  29 1.23
 154  0.123  0.043  0.339-  30 1.23
 155  0.954  0.239  0.982-  31 1.23
 156  0.539  0.519  0.454-  32 1.23

IMPORTANT INFORMATION: All symmetrisations will be switched off!
NOSYMM: (Re-)initialisation of all symmetry stuff for point group C_1.

                                     Primitive cell

  volume of cell :    1489.8147

  direct lattice vectors                    reciprocal lattice vectors
     6.451556059  0.001630460 -0.000617850     0.155001370  0.000004247  0.000054307
    -0.001674531 31.588683125  2.309309059    -0.000008246  0.031813785 -0.002145911
    -0.002587530  0.495540308  7.346544764     0.000015628 -0.010000328  0.136792960

  length of vectors
     6.451556294 31.672982378  7.363238884     0.155001379  0.031886077  0.137158014

  position of ions in fractional coordinates (direct lattice)
     0.707197514  0.939196839  0.046069927
     0.639498901  0.916943041  0.341094662
     0.942154841  0.783881768  0.894554518
     0.794131561  0.439151724  0.546149891
     0.630052804  0.290768615  0.096409414
     0.361041100  0.829108664  0.058804613
     0.861288330  0.417040279  0.841433223
     0.559007942  0.283870157  0.394909669
     0.369955927  0.455283020  0.303435441
     0.293887216  0.807028428  0.354055544
     0.130848280  0.955345555  0.803235891
     0.140214384  0.329167128  0.558148755
     0.870477364  0.790813180  0.596083073
     0.058407576  0.962282789  0.504907115
     0.206986157  0.307016413  0.853475244
     0.442556971  0.462271550  0.005224363
     0.489702821  0.020933675  0.063206056
     0.571515297  0.007118743  0.396095530
     0.987651803  0.701614171  0.581506137
     0.929270811  0.507189304  0.895907839
     0.512642805  0.201586404  0.081953988
     0.510722710  0.725141553  0.337506338
     0.010893111  0.520959945  0.563010955
     0.602751381  0.188367624  0.413792791
     0.398142195  0.557728361  0.986539030
     0.429197835  0.738946713  0.004573250
     0.012925399  0.044553783  0.817765214
     0.071420781  0.239017860  0.503477089
     0.897585076  0.688408445  0.913302923
     0.102408741  0.057747613  0.485843271
     0.989513382  0.225252054  0.836279682
     0.487721926  0.544473061  0.318503939
     0.485488140  0.066812641  0.075111007
     0.580706458  0.053585894  0.398056581
     0.996716237  0.655305006  0.581011335
     0.920047158  0.553650844  0.897748551
     0.503750183  0.155275423  0.081397668
     0.515054524  0.679251515  0.325574851
     0.015102551  0.566843667  0.574836057
     0.600945984  0.142415495  0.404714914
     0.399794447  0.603673859  0.995723865
     0.419924246  0.692487863  0.002622620
     0.003605935  0.090866750  0.818171165
     0.080411312  0.192542399  0.501579271
     0.899532334  0.642465644  0.904253500
     0.100686438  0.103703989  0.494907425
     0.985236444  0.179350719  0.824462634
     0.497030842  0.590780772  0.319030918
     0.431028280  0.095346058  0.922885887
     0.620614653  0.069516838  0.560467764
     0.059681824  0.639451051  0.424007644
     0.879729853  0.569592192  0.060030331
     0.440655388  0.139432222  0.924378894
     0.569280585  0.650697850  0.477837026
     0.069337341  0.595366176  0.422525147
     0.632024650  0.113701735  0.561974217
     0.368198258  0.632400607  0.838595095
     0.379611486  0.676579374  0.840242935
     0.940498433  0.106718654  0.975116142
     0.120492129  0.176597137  0.339260900
[...]
     0.595135856  0.981604470  0.536131131
     0.039087147  0.726689973  0.446294751
     0.905536679  0.481717056  0.036048161
     0.460937995  0.226656265  0.946767862
     0.545397124  0.738839279  0.483075295
     0.045547521  0.507236732  0.417504354
     0.623331226  0.202760827  0.560196117
     0.377903270  0.543325295  0.840115598
     0.405541040  0.764438045  0.864456840
     0.961706867  0.019467390  0.952988273
     0.095278455  0.264490056  0.363369811
     0.876726710  0.702816284  0.059646001
     0.122633124  0.043335349  0.339464029
     0.954495239  0.238973188  0.981706616
     0.538831361  0.519365659  0.453772357

  ion indices of the primitive-cell ions
   primitive index   ion index
                 1           1
                 2           2
                 3           3
                 4           4
                 5           5
                 6           6
                 7           7
                 8           8
[...]
   -.630E+01 0.271E+01 -.235E+02   0.620E+01 0.208E+01 0.235E+02   0.109E+00 -.478E+01 -.192E-01   -.234E-03 -.313E-01 0.207E-02
   -.829E+01 -.274E+02 -.124E+02   0.814E+01 0.230E+02 0.116E+02   0.155E+00 0.456E+01 0.796E+00   0.606E-03 -.601E-01 0.249E-02
   -.436E+01 0.632E+01 0.322E+00   0.396E+01 -.178E+01 0.344E+00   0.417E+00 -.460E+01 -.700E+00   -.105E-02 0.495E-01 -.548E-03
   0.839E+01 -.274E+02 -.124E+02   -.825E+01 0.228E+02 0.116E+02   -.147E+00 0.455E+01 0.793E+00   0.189E-03 0.319E-01 -.359E-02
   -.672E+01 -.298E+01 0.233E+02   0.663E+01 -.173E+01 -.234E+02   0.104E+00 0.478E+01 0.157E-01   -.682E-03 -.557E-01 0.444E-02
   0.641E+01 0.270E+01 -.234E+02   -.632E+01 0.202E+01 0.234E+02   -.993E-01 -.477E+01 -.166E-01   0.386E-03 0.489E-01 -.667E-02
   0.118E+02 -.281E+02 0.349E+02   -.123E+02 0.235E+02 -.353E+02   0.539E+00 0.460E+01 0.285E+00   -.689E-03 0.347E-01 0.198E-03
   0.422E+01 0.640E+01 0.395E+00   -.382E+01 -.178E+01 0.280E+00   -.416E+00 -.460E+01 -.704E+00   -.157E-03 -.281E-01 0.167E-02
   0.686E+01 0.506E+02 0.226E+02   -.727E+01 -.504E+02 -.230E+02   0.424E+00 -.215E+00 0.432E+00   0.433E-04 0.456E-01 -.371E-02
   -.211E+02 0.662E+02 -.200E+02   0.213E+02 -.661E+02 0.207E+02   -.190E+00 -.446E-01 -.716E+00   -.456E-03 0.492E-01 -.409E-02
   -.586E+01 -.348E+02 0.357E+02   0.604E+01 0.345E+02 -.365E+02   -.184E+00 0.325E+00 0.813E+00   -.460E-03 -.494E-01 0.301E-02
   0.210E+02 0.661E+02 -.201E+02   -.212E+02 -.660E+02 0.208E+02   0.181E+00 -.434E-01 -.720E+00   -.470E-04 -.326E-01 0.169E-02
   0.567E+01 -.347E+02 0.356E+02   -.584E+01 0.343E+02 -.364E+02   0.188E+00 0.322E+00 0.816E+00   -.143E-02 0.419E-01 -.663E-02
   -.686E+01 -.508E+02 -.225E+02   0.727E+01 0.506E+02 0.229E+02   -.422E+00 0.215E+00 -.429E+00   -.468E-03 -.509E-01 0.346E-02
   -.707E+01 0.506E+02 0.226E+02   0.749E+01 -.504E+02 -.230E+02   -.424E+00 -.222E+00 0.431E+00   -.427E-03 -.341E-01 0.208E-02
   -.139E+02 -.180E+02 -.198E+02   0.142E+02 0.175E+02 0.203E+02   -.328E+00 0.428E+00 -.602E+00   0.441E-03 0.411E-01 0.479E-03
   0.143E+02 0.179E+02 0.198E+02   -.146E+02 -.174E+02 -.204E+02   0.321E+00 -.436E+00 0.602E+00   -.186E-03 -.395E-01 0.245E-02
   0.215E+02 -.662E+02 0.199E+02   -.217E+02 0.662E+02 -.206E+02   0.184E+00 0.453E-01 0.715E+00   0.256E-03 -.525E-01 0.416E-02
   0.559E+01 0.346E+02 -.357E+02   -.577E+01 -.343E+02 0.365E+02   0.188E+00 -.328E+00 -.814E+00   -.967E-03 0.445E-01 -.238E-02
   -.214E+02 -.662E+02 0.200E+02   0.216E+02 0.661E+02 -.207E+02   -.179E+00 0.407E-01 0.716E+00   0.498E-03 0.386E-01 -.446E-02
   0.140E+02 -.180E+02 -.199E+02   -.143E+02 0.176E+02 0.205E+02   0.322E+00 0.431E+00 -.595E+00   -.133E-03 -.464E-01 0.244E-02
   -.143E+02 0.180E+02 0.199E+02   0.146E+02 -.175E+02 -.204E+02   -.328E+00 -.427E+00 0.601E+00   -.379E-03 0.434E-01 -.304E-02
   0.673E+01 -.509E+02 -.229E+02   -.713E+01 0.506E+02 0.233E+02   0.425E+00 0.208E+00 -.435E+00   -.959E-03 0.385E-01 0.541E-03
   -.599E+01 0.347E+02 -.355E+02   0.617E+01 -.343E+02 0.363E+02   -.194E+00 -.329E+00 -.812E+00   -.343E-03 -.369E-01 0.296E-02
   0.217E+02 0.319E+02 0.746E+02   -.223E+02 -.326E+02 -.769E+02   0.706E+00 0.701E+00 0.228E+01   0.100E-02 0.439E-01 -.187E-02
   -.647E+01 0.763E+02 -.869E+02   0.684E+01 -.779E+02 0.894E+02   -.379E+00 0.158E+01 -.252E+01   -.391E-03 0.474E-01 -.390E-02
   -.245E+02 -.492E+02 0.863E+02   0.253E+02 0.507E+02 -.887E+02   -.755E+00 -.152E+01 0.247E+01   0.222E-04 -.469E-01 0.420E-02
   0.675E+01 0.762E+02 -.870E+02   -.713E+01 -.777E+02 0.894E+02   0.392E+00 0.157E+01 -.252E+01   0.660E-04 -.327E-01 0.206E-02
   0.246E+02 -.491E+02 0.863E+02   -.254E+02 0.506E+02 -.887E+02   0.755E+00 -.152E+01 0.247E+01   -.321E-03 0.426E-01 -.556E-02
   -.213E+02 -.319E+02 -.745E+02   0.220E+02 0.327E+02 0.767E+02   -.699E+00 -.698E+00 -.229E+01   -.258E-03 -.471E-01 0.209E-02
   -.215E+02 0.319E+02 0.747E+02   0.222E+02 -.326E+02 -.769E+02   -.703E+00 0.699E+00 0.229E+01   0.291E-03 -.366E-01 0.236E-02
   -.290E+00 -.227E+01 -.845E+02   0.614E+00 0.291E+01 0.870E+02   -.337E+00 -.691E+00 -.251E+01   0.204E-03 0.423E-01 0.502E-03
   0.100E+01 0.218E+01 0.844E+02   -.133E+01 -.282E+01 -.869E+02   0.343E+00 0.686E+00 0.251E+01   -.186E-03 -.423E-01 0.242E-02
   0.708E+01 -.764E+02 0.868E+02   -.746E+01 0.780E+02 -.893E+02   0.385E+00 -.158E+01 0.252E+01   0.731E-03 -.518E-01 0.496E-02
   0.245E+02 0.490E+02 -.863E+02   -.252E+02 -.505E+02 0.887E+02   0.752E+00 0.152E+01 -.247E+01   0.238E-03 0.432E-01 -.400E-02
   -.687E+01 -.763E+02 0.870E+02   0.725E+01 0.778E+02 -.894E+02   -.385E+00 -.157E+01 0.252E+01   0.184E-03 0.397E-01 -.534E-02
[...]
   -.555E+02 -.211E+03 0.211E+03   0.698E+02 0.242E+03 -.253E+03   -.143E+02 -.314E+02 0.416E+02   0.160E-02 -.883E-01 0.348E-02
   0.371E+01 0.255E+03 -.221E+03   -.979E+01 -.286E+03 0.265E+03   0.609E+01 0.318E+02 -.438E+02   -.115E-02 -.288E-01 -.945E-03
   0.558E+02 -.211E+03 0.211E+03   -.702E+02 0.242E+03 -.253E+03   0.143E+02 -.314E+02 0.416E+02   0.187E-02 0.482E-01 0.150E-02
   -.324E+02 -.205E+03 -.179E+03   0.421E+02 0.228E+03 0.227E+03   -.965E+01 -.224E+02 -.481E+02   -.868E-03 -.864E-01 0.608E-02
   -.329E+02 0.205E+03 0.179E+03   0.426E+02 -.227E+03 -.227E+03   -.968E+01 0.225E+02 0.481E+02   -.919E-03 -.333E-01 0.496E-02
   0.169E+02 -.178E+03 -.218E+03   -.117E+02 0.200E+03 0.266E+03   -.524E+01 -.225E+02 -.481E+02   -.229E-02 0.555E-01 -.684E-02
   -.162E+02 0.177E+03 0.218E+03   0.111E+02 -.200E+03 -.266E+03   0.515E+01 0.225E+02 0.481E+02   -.961E-03 -.428E-01 0.517E-02
   0.365E+01 -.255E+03 0.221E+03   -.968E+01 0.287E+03 -.265E+03   0.603E+01 -.318E+02 0.438E+02   0.298E-02 -.843E-01 0.254E-02
   0.556E+02 0.211E+03 -.211E+03   -.698E+02 -.242E+03 0.253E+03   0.142E+02 0.314E+02 -.416E+02   -.234E-04 0.856E-01 -.615E-02
   -.407E+01 -.255E+03 0.221E+03   0.102E+02 0.286E+03 -.265E+03   -.612E+01 -.318E+02 0.438E+02   -.669E-04 0.359E-01 0.169E-02
   -.162E+02 -.178E+03 -.218E+03   0.108E+02 0.200E+03 0.266E+03   0.536E+01 -.225E+02 -.481E+02   -.237E-02 -.850E-01 0.680E-02
   0.162E+02 0.177E+03 0.219E+03   -.110E+02 -.200E+03 -.267E+03   -.518E+01 0.225E+02 0.481E+02   0.972E-03 0.819E-01 -.692E-02
   0.334E+02 -.205E+03 -.179E+03   -.432E+02 0.228E+03 0.227E+03   0.978E+01 -.225E+02 -.481E+02   0.260E-03 0.454E-01 -.732E-02
   -.551E+02 0.211E+03 -.211E+03   0.692E+02 -.243E+03 0.253E+03   -.142E+02 0.314E+02 -.416E+02   0.374E-03 -.370E-01 0.160E-02
   -.231E+00 -.237E+00 0.834E-01   0.853E-13 0.966E-12 0.114E-12   0.257E+00 0.177E+00 -.647E-01   -.196E-01 0.359E-01 -.714E-03

 POSITION                                       TOTAL-FORCE (eV/Angst)
      4.56083     29.69197      2.50691        -0.002338     -0.001208      0.002865
      4.12334     29.13509      4.62298        -0.001638      0.002278     -0.000561
      6.07474     25.20662      8.38153         0.001082      0.003277     -0.003412
      5.12124     14.14416      5.02596        -0.000177     -0.002114     -0.001417
      4.06408      9.23380      1.37936         0.000588      0.003593     -0.001879
      2.32774     26.22018      2.34646        -0.002881      0.000347      0.000690
      5.55377     13.59212      7.14417         0.000338     -0.001531      0.001574
      3.60497      9.16369      3.55642        -0.004967      0.001295      0.001857
      2.38524     14.53276      3.28036         0.002823     -0.003102      0.004837
      1.89376     25.66889      4.46458         0.001380     -0.002886     -0.003600
      0.84050     30.57636      8.10712        -0.005653     -0.001000     -0.000736
      0.90261     10.67477      4.86053         0.000633      0.000561     -0.000272
      5.61307     25.27755      6.20485         0.001425     -0.001309      0.001308
      0.37390     30.64754      5.93149        -0.001913      0.000315      0.002156
      1.33266     10.12151      6.97896         0.001021      0.002401      0.000814
      2.85439     14.60586      1.10564         0.004250      0.002353     -0.003236
      3.15915      0.69339      0.51239        -0.002065      0.004605      0.003529
      3.68613      0.42208      2.92602         0.000223     -0.002530     -0.003299
      6.36921     22.45284      5.89169         0.002405      0.006490     -0.001317
      5.99208     16.46692      7.75251        -0.000112     -0.002765      0.003633
      3.30679      6.40930      1.06729        -0.000429     -0.000682     -0.000553
      3.29287     23.07435      4.15377         0.002582      0.002264      0.004153
      0.06795     16.73545      5.33924         0.001349     -0.000232     -0.003557
      3.88730      6.15632      3.47457        -0.006170     -0.000881     -0.001907
      2.56515     18.10742      8.53537         0.003452     -0.004761     -0.000970
      2.76774     23.34532      1.73979        -0.000628      0.004637     -0.005561
      0.08120      1.81265      6.11063        -0.000363     -0.002373     -0.005247
      0.45907      7.79987      4.25074         0.002336     -0.001163     -0.002938
      5.78730     22.19996      8.29881         0.003521      0.007125      0.002444
      0.65934      2.06509      3.70256         0.000839      0.002578      0.005709
      6.38136      7.53144      6.66333        -0.000561     -0.007118     -0.000336
      3.14483     17.35781      3.59696         0.000788     -0.004641      0.002033
      3.13185      2.14854      0.70580         0.000801      0.001970      0.001656
      3.74534      1.89091      3.04773        -0.005977      0.001320      0.001143
      6.42777     20.98976      5.78111         0.004335     -0.002829     -0.000838
      5.93249     17.93547      7.87333        -0.000398      0.004186     -0.002993
      3.24950      4.94610      0.95626        -0.001065     -0.003396      0.004041
      3.32092     21.61884      3.96013         0.000789     -0.002452      0.001853
      0.09500     18.19072      5.53207         0.003153     -0.000870     -0.003886
      3.87575      4.70025      3.30177        -0.002548     -0.003944     -0.003908
      2.57571     19.56334      8.70895        -0.004164      0.001415      0.001679
      2.70800     21.87676      1.61818         0.002320     -0.003291      0.000328
      0.02099      3.27580      6.22057        -0.002326      0.001844     -0.004260
      0.51716      6.33084      4.12946         0.000543     -0.000893      0.002625
      5.79997     20.74420      8.12623        -0.002276     -0.005161      0.004040
      0.64813      3.52128      3.87528        -0.000584      0.004301      0.003278
      6.35387      6.07561      6.47052         0.003929     -0.003193     -0.004563
      3.20481     18.82089      3.70776         0.000481      0.003441      0.002799
      2.77826      3.46989      6.99994        -0.003377      0.000973     -0.003144
      4.00236      2.47469      4.27765        -0.001194      0.002760     -0.001407
      0.38287     20.40963      4.59164        -0.001447     -0.000567     -0.002559
      5.67452     18.02385      1.75584         0.004381     -0.006366      0.003103
      2.84029      4.86327      7.11271        -0.001836      0.001959      0.000300
      3.67042     20.79240      5.01276         0.003296      0.000798     -0.000798
      0.44524     19.01632      4.47894         0.002572     -0.005168      0.003836
      4.07590      3.87120      4.39075        -0.001290     -0.000735     -0.001946
      2.37222     20.39286      7.62096         0.002270     -0.000631     -0.000111
      2.44578     21.78924      7.73508         0.000660     -0.000009     -0.002019
      6.06498      3.85584      7.40960        -0.001957      0.001440      0.002010
      0.77619      5.74678      2.90014        -0.000095      0.000622      0.000193
[...]
      3.83652     31.27424      6.20517        -0.000470      0.000487      0.003472
      0.24980     23.17640      4.95685         0.000465     -0.001821     -0.000040
      5.84122     15.23615      1.37670         0.004166     -0.000175     -0.003806
      2.97094      7.62969      7.47861        -0.001180      0.001740     -0.001473
      3.51617     23.57923      5.25481         0.002139      0.003003     -0.002127
      0.29192     16.22990      4.23855        -0.002466      0.001038      0.007310
      4.01967      6.68356      4.58336         0.000581      0.003636      0.003330
      2.43498     17.57986      7.42642        -0.004676      0.000738     -0.003430
      2.61285     24.57663      8.11584         0.000307      0.000317     -0.001195
      6.20201      1.08876      7.04553        -0.004426     -0.000909      0.006112
      0.61331      8.53511      3.28024         0.000034      0.004842     -0.001814
      5.65492     22.23203      2.06067         0.000810     -0.000594      0.001046
      0.79022      1.53732      2.59389         0.001490     -0.005342     -0.004178
      6.15504      8.03688      7.76342        -0.001395      0.002748      0.002791
      3.47426     16.63182      4.53270        -0.000511      0.000491      0.000295
    total drift:                                0.006861     -0.024095      0.017949

  FREE ENERGIE OF THE ION-ELECTRON SYSTEM (eV)
  free  energy   TOTEN  =     -1178.33625133 eV

  energy  without entropy=    -1178.30359441  energy(sigma->0) =    -1178.31992287

 reached required accuracy - stopping structural energy minimisation
 writing wavefunctions

 total charge

[...]

 magnetization (x)

# of ion       s       p       d       tot
    1        0.003   0.024   0.000   0.026
    2        0.003   0.023   0.000   0.026
    3        0.003   0.017   0.000   0.020
    4       -0.003  -0.024   0.000  -0.026
    5       -0.003  -0.019   0.000  -0.022
    6        0.003   0.023   0.000   0.026
    7       -0.003  -0.023   0.000  -0.026
    8       -0.003  -0.017   0.000  -0.020
    9       -0.003  -0.019   0.000  -0.022
   10        0.003   0.023   0.000   0.026
   11        0.003   0.019   0.000   0.022
   12       -0.003  -0.023   0.000  -0.026
   13        0.003   0.019   0.000   0.022
   14        0.003   0.017   0.000   0.020
   15       -0.003  -0.023   0.000  -0.026
   16       -0.003  -0.018   0.000  -0.021
   17        0.000   0.001   0.000   0.001
   18        0.000   0.001   0.000   0.001
   19        0.000   0.001   0.000   0.001
   20       -0.000  -0.001   0.000  -0.001
   21       -0.000  -0.001   0.000  -0.001
   22        0.000   0.001   0.000   0.001
   23       -0.000  -0.001   0.000  -0.001
   24       -0.000  -0.001   0.000  -0.001
   25       -0.000  -0.001   0.000  -0.001
   26        0.000   0.001   0.000   0.001
   27        0.000   0.001   0.000   0.001
   28       -0.000  -0.001   0.000  -0.001
   29        0.000   0.001   0.000   0.001
   30        0.000   0.001   0.000   0.001
   31       -0.000  -0.001   0.000  -0.001
   32       -0.000  -0.001   0.000  -0.001
   33       -0.000  -0.000   0.000  -0.000
   34       -0.000  -0.000   0.000  -0.000
   35       -0.000  -0.000   0.000  -0.000
   36        0.000   0.000   0.000   0.000
   37        0.000   0.000   0.000   0.000
   38       -0.000  -0.000   0.000  -0.000
   39        0.000   0.000   0.000   0.000
   40        0.000   0.000   0.000   0.000
   41        0.000   0.000   0.000   0.000
   42       -0.000  -0.000   0.000  -0.000
   43       -0.000  -0.000   0.000  -0.000
   44        0.000   0.000   0.000   0.000
   45       -0.000  -0.000   0.000  -0.000
   46       -0.000  -0.000   0.000  -0.000
   47        0.000   0.000   0.000   0.000
   48        0.000   0.000   0.000   0.000
   49        0.000   0.000   0.000   0.000
   50        0.000   0.000   0.000   0.000
   51        0.000   0.000   0.000   0.000
   52       -0.000  -0.000   0.000  -0.000
   53       -0.000  -0.000   0.000  -0.000
   54        0.000   0.000   0.000   0.000
   55       -0.000  -0.000   0.000  -0.000
   56       -0.000  -0.000   0.000  -0.000
   57       -0.000  -0.000   0.000  -0.000
   58        0.000   0.000   0.000   0.000
   59        0.000   0.000   0.000   0.000
   60       -0.000  -0.000   0.000  -0.000
[...]
  142        0.000   0.002   0.000   0.002
  143        0.000   0.002   0.000   0.002
  144       -0.000  -0.002   0.000  -0.002
  145       -0.000  -0.002   0.000  -0.002
  146        0.000   0.001   0.000   0.001
  147       -0.000  -0.001   0.000  -0.001
  148       -0.000  -0.001   0.000  -0.001
  149       -0.000  -0.001   0.000  -0.001
  150        0.000   0.002   0.000   0.002
  151        0.000   0.002   0.000   0.002
  152       -0.000  -0.002   0.000  -0.002
  153        0.000   0.001   0.000   0.001
  154        0.000   0.001   0.000   0.001
  155       -0.000  -0.001   0.000  -0.001
  156       -0.000  -0.002   0.000  -0.002
tot         -0.000  -0.002  -0.007  -0.009