 vasp.5.4.4.18Apr17-6-g9f103f2a35 (build May 22 2020 17:00:04) complex

 executed on           IFC15_impi date 2020.09.23  01:01:51

 INCAR:
 POTCAR:    PAW_PBE C 08Apr2002
 POTCAR:    PAW_PBE Fe 06Sep2000
 POTCAR:    PAW_PBE H 15Jun2001
 POTCAR:    PAW_PBE N 08Apr2002
 POTCAR:    PAW_PBE O 08Apr2002

 POTCAR:    PAW_PBE C 08Apr2002
   VRHFIN =C: s2p2

   TITEL  = PAW_PBE C 08Apr2002
   POMASS =   12.011; ZVAL   =    4.000    mass and valenz
   ENMAX  =  400.000; ENMIN  =  300.000 eV

 POTCAR:    PAW_PBE Fe 06Sep2000
   VRHFIN =Fe:  d7 s1

   TITEL  = PAW_PBE Fe 06Sep2000
   POMASS =   55.847; ZVAL   =    8.000    mass and valenz
   ENMAX  =  267.882; ENMIN  =  200.911 eV

 POTCAR:    PAW_PBE H 15Jun2001
   VRHFIN =H: ultrasoft test

   TITEL  = PAW_PBE H 15Jun2001
   POMASS =    1.000; ZVAL   =    1.000    mass and valenz
   ENMAX  =  250.000; ENMIN  =  200.000 eV

 POTCAR:    PAW_PBE N 08Apr2002
   VRHFIN =N: s2p3

[...]

 POTCAR:    PAW_PBE O 08Apr2002
   VRHFIN =O: s2p4

   TITEL  = PAW_PBE O 08Apr2002
   POMASS =   16.000; ZVAL   =    6.000    mass and valenz
   ENMAX  =  400.000; ENMIN  =  300.000 eV

 Optimization of the real space projectors (new method)

 maximal supplied QI-value         = 25.13
 optimisation between [QCUT,QGAM] = [ 12.32, 24.88] = [ 42.47,173.37] Ry
 Optimized for a Real-space Cutoff    1.06 Angstroem

   l    n(q)    QCUT    max X(q) W(low)/X(q) W(high)/X(q)  e(spline)
   0      8    12.315   115.676    0.34E-03    0.18E-03    0.23E-06
   0      8    12.315    87.132    0.34E-03    0.18E-03    0.22E-06
   1      7    12.315     4.429    0.45E-03    0.12E-03    0.18E-06
   1      7    12.315     2.733    0.35E-03    0.97E-04    0.15E-06
 Optimization of the real space projectors (new method)

[...]

   l    n(q)    QCUT    max X(q) W(low)/X(q) W(high)/X(q)  e(spline)
   0      9    12.315    79.467    0.14E-03    0.22E-04    0.37E-06
   0      9    12.315    66.151    0.14E-03    0.23E-04    0.36E-06
   1      8    12.315    22.077    0.30E-03    0.54E-03    0.45E-06
   1      8    12.315    15.894    0.30E-03    0.55E-03    0.45E-06
 Optimization of the real space projectors (new method)

 maximal supplied QI-value         = 24.76
 optimisation between [QCUT,QGAM] = [ 12.38, 25.00] = [ 42.90,175.06] Ry
 Optimized for a Real-space Cutoff    1.13 Angstroem

   l    n(q)    QCUT    max X(q) W(low)/X(q) W(high)/X(q)  e(spline)
   0      8    12.378    20.381    0.16E-03    0.54E-05    0.27E-06
   0      8    12.378    15.268    0.17E-03    0.61E-05    0.29E-06
   1      8    12.378     5.964    0.38E-03    0.23E-03    0.28E-06
   1      8    12.378     5.382    0.33E-03    0.20E-03    0.25E-06
  PAW_PBE C 08Apr2002                   :
  PAW_PBE Fe 06Sep2000                  :
  PAW_PBE H 15Jun2001                   :
  PAW_PBE N 08Apr2002                   :
  PAW_PBE O 08Apr2002                   :

 POSCAR: FeH_6
  positions in direct lattice
  velocities in cartesian coordinates
 exchange correlation table for  LEXCH =        8
   RHO(1)=    0.500       N(1)  =     2000
   RHO(2)=  100.500       N(2)  =     4000

 ion  position               nearest neighbor table
   1  0.841  0.956  0.106- 107 1.09 117 1.35  65 1.40
   2  0.921  0.965  0.450- 112 1.08 118 1.35  65 1.40
   3  0.836  0.808  0.899- 116 1.09 119 1.35  66 1.40
   4  0.659  0.456  0.605- 110 1.09 120 1.35  67 1.40
   5  0.585  0.298  0.054- 111 1.08 121 1.35  68 1.40
   6  0.080  0.797  0.057- 115 1.08 122 1.35  69 1.40
   7  0.579  0.465  0.948- 101 1.08 123 1.35  67 1.40
   8  0.664  0.308  0.397- 113 1.09 124 1.35  68 1.40
   9  0.414  0.464  0.448- 114 1.09 125 1.35  70 1.40
  10  0.160  0.806  0.401- 104 1.09 126 1.35  69 1.40
  11  0.086  0.964  0.951- 105 1.08 127 1.35  71 1.40
  12  0.420  0.297  0.554- 102 1.08 128 1.35  72 1.40
  13  0.915  0.798  0.556- 108 1.09 129 1.35  66 1.40
  14  0.165  0.954  0.608- 109 1.09 130 1.35  71 1.40
  15  0.340  0.306  0.897- 106 1.09 131 1.35  72 1.40
  16  0.335  0.454  0.105- 103 1.09 132 1.35  70 1.40
  17  0.763  0.037  0.449- 141 1.23 133 1.41  33 1.48
  18  0.866  0.056  0.078- 142 1.23 133 1.42  34 1.48
  19  0.858  0.709  0.930- 143 1.23 134 1.42  35 1.48
  20  0.634  0.556  0.577- 144 1.23 135 1.42  36 1.48
  21  0.642  0.208  0.428- 145 1.23 136 1.42  37 1.48
  22  0.237  0.725  0.057- 146 1.23 137 1.41  38 1.48
  23  0.737  0.537  0.949- 147 1.23 135 1.41  39 1.48
  24  0.745  0.227  0.057- 148 1.23 136 1.41  40 1.48
  25  0.254  0.535  0.446- 149 1.23 138 1.41  41 1.48
  26  0.134  0.707  0.428- 150 1.23 137 1.42  42 1.48
  27  0.143  0.053  0.576- 151 1.23 139 1.42  43 1.48
  28  0.366  0.207  0.926- 152 1.23 140 1.42  44 1.48
  29  0.755  0.727  0.558- 153 1.23 134 1.41  45 1.48
  30  0.246  0.035  0.948- 154 1.23 139 1.41  46 1.48
  31  0.263  0.225  0.554- 155 1.23 140 1.41  47 1.48
  32  0.357  0.554  0.075- 156 1.23 138 1.42  48 1.48
  33  0.732  0.081  0.437-  49 1.39  73 1.42  17 1.48
  34  0.836  0.100  0.080-  50 1.39  73 1.42  18 1.48
  35  0.827  0.665  0.929-  51 1.39  74 1.42  19 1.48
  36  0.664  0.600  0.580-  52 1.39  75 1.42  20 1.48
  37  0.673  0.165  0.427-  53 1.39  76 1.42  21 1.48
  38  0.268  0.681  0.068-  54 1.39  77 1.42  22 1.48
  39  0.768  0.581  0.938-  55 1.39  75 1.42  23 1.48
  40  0.777  0.183  0.070-  56 1.39  76 1.42  24 1.48
  41  0.222  0.579  0.434-  57 1.39  78 1.42  25 1.48
  42  0.164  0.663  0.426-  58 1.39  77 1.42  26 1.48
  43  0.173  0.097  0.577-  59 1.39  79 1.42  27 1.48
  44  0.336  0.163  0.924-  60 1.39  80 1.42  28 1.48
  45  0.723  0.683  0.570-  61 1.39  74 1.42  29 1.48
  46  0.278  0.079  0.935-  62 1.39  79 1.42  30 1.48
  47  0.232  0.181  0.566-  63 1.39  80 1.42  31 1.48
  48  0.327  0.597  0.077-  64 1.39  78 1.42  32 1.48
  49  0.666  0.093  0.607-  88 1.09  33 1.39  53 1.40
  50  0.873  0.130  0.906-  99 1.09  34 1.39  56 1.40
  51  0.864  0.634  0.103-  93 1.09  35 1.39  55 1.40
  52  0.627  0.630  0.406-  90 1.09  36 1.39  61 1.40
  53  0.636  0.134  0.601-  98 1.09  37 1.39  49 1.40
  54  0.334  0.669  0.899-  96 1.09  38 1.39  64 1.40
  55  0.834  0.593  0.108-  86 1.09  39 1.39  51 1.40
  56  0.843  0.171  0.901-  87 1.09  40 1.39  50 1.40
  57  0.156  0.591  0.603-  95 1.09  41 1.39  58 1.40
  58  0.127  0.632  0.599-  91 1.09  42 1.39  57 1.40
  59  0.136  0.127  0.402-  92 1.09  43 1.39  63 1.40
  60  0.373  0.133  0.099-  85 1.09  44 1.39  62 1.40
[...]
 142  0.922  0.044  0.926-  18 1.23
 143  0.914  0.720  0.083-  19 1.23
 144  0.578  0.544  0.424-  20 1.23
 145  0.586  0.220  0.581-  21 1.23
 146  0.265  0.752  0.898-  22 1.23
 147  0.764  0.510  0.109-  23 1.23
 148  0.772  0.254  0.897-  24 1.23
 149  0.227  0.508  0.606-  25 1.23
 150  0.078  0.718  0.581-  26 1.23
 151  0.087  0.042  0.424-  27 1.23
 152  0.422  0.218  0.078-  28 1.23
 153  0.728  0.754  0.398-  29 1.23
 154  0.273  0.008  0.110-  30 1.23
 155  0.235  0.252  0.394-  31 1.23
 156  0.413  0.542  0.923-  32 1.23

IMPORTANT INFORMATION: All symmetrisations will be switched off!
NOSYMM: (Re-)initialisation of all symmetry stuff for point group C_1.

Automatic generation of k-mesh.
 generate k-points for:    2    1    4
Space group operators:
 irot       det(A)        alpha          n_x          n_y          n_z        tau_x        tau_y        tau_z
    1     1.000000     0.000000     1.000000     0.000000     0.000000     0.000000     0.000000     0.000000

 Subroutine IBZKPT returns following result:

 Found      6 irreducible k-points:

 Following reciprocal coordinates:
            Coordinates               Weight
  0.000000  0.000000  0.000000      1.000000
  0.500000 -0.000000 -0.000000      1.000000
 -0.000000  0.000000  0.250000      2.000000
  0.500000  0.000000  0.250000      2.000000
 -0.000000  0.000000  0.500000      1.000000
  0.500000  0.000000  0.500000      1.000000

 Following cartesian coordinates:
            Coordinates               Weight
  0.000000  0.000000  0.000000      1.000000
  0.035730  0.000002  0.000018      1.000000
  0.000046 -0.002005  0.045821      2.000000
  0.035776 -0.002004  0.045839      2.000000
  0.000092 -0.004011  0.091642      1.000000
  0.035822 -0.004009  0.091660      1.000000

 SYSTEM =  flex_MOF
 POSCAR =  FeH_6

 Startparameter for this run:
   NWRITE =      2    write-flag & timer
   PREC   = normal    normal or accurate (medium, high low for compatibility)
   ISTART =      0    job   : 0-new  1-cont  2-samecut
   ICHARG =      2    charge: 1-file 2-atom 10-const
   ISPIN  =      2    spin polarized calculation?
   LNONCOLLINEAR =      F non collinear calculations
   LSORBIT =      F    spin-orbit coupling
   INIWAV =      1    electr: 0-lowe 1-rand  2-diag
   LASPH  =      F    aspherical Exc in radial PAW
   METAGGA=      F    non-selfconsistent MetaGGA calc.

 Electronic Relaxation 1
   ENCUT  =  600.0 eV  44.10 Ry    6.64 a.u.  27.95 64.43 10.94*2*pi/ulx,y,z
   ENINI  =  600.0     initial cutoff
   ENAUG  =  644.9 eV  augmentation charge cutoff
   NELM   =     80;   NELMIN=  3; NELMDL= -8     # of ELM steps
   EDIFF  = 0.1E-05   stopping-criterion for ELM
   LREAL  =      T    real-space projection
   NLSPLINE    = F    spline interpolate recip. space projectors
   LCOMPAT=      F    compatible to vasp.4.4
   GGA_COMPAT  = T    GGA compatible to vasp.4.4-vasp.4.6
   LMAXPAW     = -100 max onsite density
   LMAXMIX     =    2 max onsite mixed and CHGCAR
   VOSKOWN=      0    Vosko Wilk Nusair interpolation
   ROPT   =   -0.00050  -0.00050  -0.00050  -0.00050
   ROPT   =   -0.00050
 Ionic relaxation
   EDIFFG = -.1E-01   stopping-criterion for IOM
   NSW    =   1000    number of steps for IOM
   NBLOCK =      1;   KBLOCK =   1000    inner block; outer block
   IBRION =      2    ionic relax: 0-MD 1-quasi-New 2-CG
   NFREE  =      1    steps in history (QN), initial steepest desc. (CG)
   ISIF   =      4    stress and relaxation
   IWAVPR =     11    prediction:  0-non 1-charg 2-wave 3-comb
   ISYM   =      0    0-nonsym 1-usesym 2-fastsym
   LCORR  =      T    Harris-Foulkes like correction to forces

   POTIM  = 0.5000    time-step for ionic-motion
   TEIN   =    0.0    initial temperature
   TEBEG  =    0.0;   TEEND  =   0.0 temperature during run
   SMASS  =  -3.00    Nose mass-parameter (am)
   estimated Nose-frequenzy (Omega)   =  0.10E-29 period in steps =****** mass=  -0.448E-26a.u.
   SCALEE = 1.0000    scale energy and forces
   NPACO  =    256;   APACO  = 16.0  distance and # of slots for P.C.
   PSTRESS=    0.0 pullay stress

  Mass of Ions in am
   POMASS =  12.01 55.85  1.00 14.00 16.00
  Ionic Valenz
   ZVAL   =   4.00  8.00  1.00  5.00  6.00
  Atomic Wigner-Seitz radii
  virtual crystal weights
   VCA    =   1.00  1.00  1.00  1.00  1.00
   NELECT =     600.0000    total number of electrons
   NUPDOWN=      -1.0000    fix difference up-down

 DOS related values:
   EMIN   =  10.00;   EMAX   =-10.00  energy-range for DOS
   EFERMI =   0.00
   ISMEAR =     0;   SIGMA  =   0.05  broadening in eV -4-tet -1-fermi 0-gaus

 Electronic relaxation 2 (details)
   IALGO  =     38    algorithm
   LDIAG  =      T    sub-space diagonalisation (order eigenvalues)
   LSUBROT=      F    optimize rotation matrix (better conditioning)
[...]
  110        set_charge                            1.025005                            1   3
  111          soft_charge                           0.974480                          1   4
  112            fftwav_mpi                            0.840403                      120   5
  113              fft3d_mpi                             0.758972                    120   6
  114                fftbas_plan_mpi                       0.758547                  120   7
  115                  dfftw_execute                         0.385381                360   8
  116                  map_forward                           0.308241                240   8
  117                    map_gather                            0.081901              120   9
  118                    m_alltoallv_z                         0.064930              120   9
  119                    map_scatter                           0.098838              120   9
  120            pw_charge                             0.086147                      120   5
  121            fft3d_mpi                             0.009643                        2   5
  122              fftbas_plan_mpi                       0.008634                      2   6
  123                dfftw_execute                         0.003838                    6   7
  124                map_backward                          0.003779                    4   7
  125                  map_gather                            0.001348                  4   8
  126                  m_alltoallv_z                         0.002312                  4   8
  127                  map_scatter                           0.000072                  4   8
  128          depsum                                0.005266                          1   4
  129          fft3d_mpi                             0.008661                          2   4
  130            fftbas_plan_mpi                       0.008352                        2   5
  131              dfftw_execute                         0.002155                      6   6
  132              map_backward                          0.004728                      4   6
  133                map_gather                            0.000611                    2   7
  134                m_alltoallv_z                         0.003738                    2   7
  135                map_scatter                           0.000339                    2   7
  136        forloc                                0.119744                            1   3
  137        fornlr                                4.217515                            1   3
  138          rspher_all                            0.093078                          3   4
  139          phaser                                0.254764                         18   4
  140          rpro_isp                              3.696186                         18   4
  141            fftwav_mpi                            2.931739                      432   5
  142              fft3d_mpi                             2.637753                    432   6
  143                fftbas_plan_mpi                       2.636135                  432   7
  144                  dfftw_execute                         1.334613               1296   8
  145                  map_forward                           1.061331                864   8
  146                    map_gather                            0.280270              432   9
  147                    m_alltoallv_z                         0.225837              432   9
  148                    map_scatter                           0.342020              432   9
  149            rpromu                                0.756760                      108   5
  150              crrexp_mul_wave                       0.377961                  67392   6
  151              rpromu_gemm                           0.246014                  16848   6
  152        fordep                                0.251638                            1   3
  153          setdij_                               0.251161                          6   4
  154        setdij_                               0.603888                           20   3
  155        set_dd_paw                            0.030223                            1   3
  156        strkin                                0.020977                            1   3
  157        strelo                                0.004887                            1   3
  158        strnlr                               12.590524                            1   3
  159          rspher_all                            0.281344                          9   4
  160          phaser                                0.772365                         54   4
  161          rpro_isp                             11.029620                         54   4
  162            fftwav_mpi                            8.778557                     1296   5
  163              fft3d_mpi                             7.911297                   1296   6
  164                fftbas_plan_mpi                       7.906318                 1296   7
  165                  dfftw_execute                         4.014977               3888   8
  166                  map_forward                           3.176306               2592   8
  167                    map_gather                            0.836905             1296   9
  168                    m_alltoallv_z                         0.670267             1296   9
  169                    map_scatter                           1.021951             1296   9
  170            rpromu                                2.236345                      324   5
  171              crrexp_mul_wave                       1.121528                 202176   6
  172              rpromu_gemm                           0.723515                  50544   6
  173        fft3d_mpi                             0.089891                           22   3
  174          fftbas_plan_mpi                       0.086162                         22   4
  175            dfftw_execute                         0.023303                       66   5
  176            map_forward                           0.021211                       20   5
  177              map_gather                            0.001160                     10   6
  178              m_alltoallv_z                         0.016482                     10   6
  179              map_scatter                           0.003406                     10   6
  180            map_backward                          0.025626                       24   5
  181              map_gather                            0.003744                     12   6
  182              m_alltoallv_z                         0.019623                     12   6
  183              map_scatter                           0.002062                     12   6
  184        forhar                                0.214036                            2   3
  185        strehar                               0.005400                            1   3
  186        chggra                                0.016485                            1   3
  187          fft3d_mpi                             0.013188                          3   4
  188            fftbas_plan_mpi                       0.012631                        3   5
  189              dfftw_execute                         0.003186                      9   6
  190              map_forward                           0.005153                      4   6
  191                map_gather                            0.000298                    2   7
  192                m_alltoallv_z                         0.004197                    2   7
  193                map_scatter                           0.000623                    2   7
  194              map_backward                          0.002135                      2   6
  195                map_gather                            0.000332                    1   7
  196                m_alltoallv_z                         0.001615                    1   7
  197                map_scatter                           0.000166                    1   7
  198        brmix                                 0.024088                            1   3
  199          brpre                                 0.000079                          2   4
  200          setg0                                 0.001505                          1   4
  201          broyd                                 0.019569                          1   4
  202            brget                                 0.001917                      255   5
  203            brsav                                 0.000335                       46   5

 Flat profile

 eddav                                 902.656536          69
 dfftw_execute                         332.193904      315456
 total_time                            309.087354           1
 redis_pw                              219.280826       95604
 orth1                                 155.447608      104004
 map_scatter                            91.083277      105402
 map_gather                             77.537656      105402
 redis_proj                             73.163777      120300
 m_alltoallv_z                          66.367873      105402
 fftwav_mpi                             66.342707       68616
 fftbas_plan_mpi                        58.473187      105154
 crrexp_mul_work_add                    49.438809     5400720
 racc0                                  48.118327       34620
 map_forward                            46.995835      139030
 vhamil                                 39.066815       34620
 rpro1                                  30.891104       24684
 lincom                                 25.866895         840
 crrexp_mul_wave                        23.803746     4142736
 phaser                                 12.862534         906
 w1_copy                                11.177591      103860
 eccp                                    8.824687        9936
 fftext_mpi                              8.266650       34620
 force_and_stress                        6.220885           1
 pw_charge                               5.298892        7440
 kinhamil                                4.968572       34620
 setdij_                                 2.777768          90
 apply_precond                           2.754628       24684
 soft_charge                             2.542428          62
 set_charge                              2.277682          62
 set_dd_paw                              1.941504          64
 overl                                   1.831595       59316
 setup_precond                           1.694244        9936
 overl1                                  1.463120       34620
 rpromu_gemm                             1.087648       73008
 fft3d_mpi                               0.812593      105152
 map_backward                            0.745386       71274
 broyd                                   0.668391          62
 rpromu                                  0.567461         468
 hamiltmu                                0.520771       34620
 strnlr                                  0.507195           1
 rspher_all                              0.429830          14
 depsum                                  0.320138          62
 choleski                                0.259684          12
 raccmu_                                 0.237103       34620
 forhar                                  0.214036           2
 brmix                                   0.174082          62
 orthch                                  0.173978           1
 fornlr                                  0.173486           1
 w1_projall                              0.152312       24684
 forloc                                  0.119744           1
 setg0                                   0.094838          64
 brget                                   0.080299       10446
 truncate_high_frequency_w1              0.031535       44556
 rpro_isp                                0.024057          78
 brsav                                   0.021332        2491
 strkin                                  0.020977           1
 brpre                                   0.006928         124
 strehar                                 0.005400           1
 strelo                                  0.004887           1
 chggra                                  0.003297           1
 fordep                                  0.000477           1
 brgrid                                  0.000397           1
 redis_pw_over_bands                     0.000000           1
  summed up times    2698.17727994919

 Accumulative profile

 total_time                           2698.177280           1
 eddav                                2285.769130          69
 fft3d_mpi                             674.145356      105152
 fftbas_plan_mpi                       673.397118      105154
 fftwav_mpi                            524.753960       68616
 hamiltmu                              359.363432       34620
 dfftw_execute                         332.193904      315456
 kinhamil                              220.518487       34620
 redis_pw                              219.280826       95604
 fftext_mpi                            215.549915       34620
 map_forward                           201.905243      139030
 orth1                                 155.447608      104004
 raccmu_                                99.257359       34620
 racc0                                  97.557136       34620
 map_scatter                            91.083277      105402
 map_backward                           80.824784       71274
 map_gather                             77.537656      105402
 redis_proj                             73.163777      120300
 m_alltoallv_z                          66.367873      105402
 set_charge                             63.817094          62
 soft_charge                            60.618102          62
 w1_projall                             53.227978       24684
 rpro1                                  53.075666       24684
 crrexp_mul_work_add                    49.438809     5400720
 vhamil                                 39.066815       34620
 lincom                                 25.866895         840
 force_and_stress                       25.435187           1
 crrexp_mul_wave                        23.803746     4142736
 rpro_isp                               16.050930          78
 phaser                                 12.862534         906
 strnlr                                 12.590524           1
 w1_copy                                11.177591      103860
 eccp                                    8.824687        9936
 pw_charge                               5.298892        7440
 fornlr                                  4.217515           1
 rpromu                                  3.274294         468
 setdij_                                 2.777768          90
 apply_precond                           2.754628       24684
 set_dd_paw                              1.941504          64
 overl                                   1.831595       59316
 setup_precond                           1.694244        9936
 orthch                                  1.561291           1
 overl1                                  1.463120       34620
 rpromu_gemm                             1.087648       73008
 brmix                                   1.045871          62
 broyd                                   0.770023          62
 rspher_all                              0.429830          14
 depsum                                  0.320138          62
 choleski                                0.259684          12
 fordep                                  0.251638           1
 forhar                                  0.214036           2
 forloc                                  0.119744           1
 setg0                                   0.094838          64
 brget                                   0.080299       10446
 truncate_high_frequency_w1              0.031535       44556
 brsav                                   0.021332        2491
 strkin                                  0.020977           1
 chggra                                  0.016485           1
 brpre                                   0.006928         124
 strehar                                 0.005400           1
 strelo                                  0.004887           1
 brgrid                                  0.000397           1
 redis_pw_over_bands                     0.000000           1

Profiling took   6.640859  3.774215  0.012500  0.012137 seconds
Profiling took   7.798335 seconds