 vasp.6.0.8 29Jun18 (build Mar 14 2019 11:44:20) complex

 executed on             LinuxIFC date 2021.01.06  12:49:42

 INCAR:
 POTCAR:    PAW_PBE C 08Apr2002
 POTCAR:    PAW_PBE Zn 06Sep2000
 POTCAR:    PAW_PBE H 15Jun2001
 POTCAR:    PAW_PBE N 08Apr2002
 POTCAR:    PAW_PBE O 08Apr2002
 POTCAR:    PAW_PBE C 08Apr2002
   VRHFIN =C: s2p2

   TITEL  = PAW_PBE C 08Apr2002
   POMASS =   12.011; ZVAL   =    4.000    mass and valenz
   ENMAX  =  400.000; ENMIN  =  300.000 eV

 POTCAR:    PAW_PBE Zn 06Sep2000
   VRHFIN =Zn: d10 p2

   TITEL  = PAW_PBE Zn 06Sep2000
   POMASS =   65.390; ZVAL   =   12.000    mass and valenz
   ENMAX  =  276.723; ENMIN  =  207.542 eV

 POTCAR:    PAW_PBE H 15Jun2001
   VRHFIN =H: ultrasoft test

   TITEL  = PAW_PBE H 15Jun2001
   POMASS =    1.000; ZVAL   =    1.000    mass and valenz
   ENMAX  =  250.000; ENMIN  =  200.000 eV

 POTCAR:    PAW_PBE N 08Apr2002
   VRHFIN =N: s2p3

[...]

 POTCAR:    PAW_PBE O 08Apr2002
   VRHFIN =O: s2p4

   TITEL  = PAW_PBE O 08Apr2002
   POMASS =   16.000; ZVAL   =    6.000    mass and valenz
   ENMAX  =  400.000; ENMIN  =  300.000 eV

 Optimization of the real space projectors (new method)

 maximal supplied QI-value         = 25.13
 optimisation between [QCUT,QGAM] = [ 12.32, 24.88] = [ 42.47,173.37] Ry
 Optimized for a Real-space Cutoff    1.06 Angstroem

   l    n(q)    QCUT    max X(q) W(low)/X(q) W(high)/X(q)  e(spline)
   0      8    12.315   115.676    0.34E-03    0.18E-03    0.23E-06
   0      8    12.315    87.132    0.34E-03    0.18E-03    0.22E-06
   1      7    12.315     4.429    0.45E-03    0.12E-03    0.18E-06
   1      7    12.315     2.733    0.35E-03    0.97E-04    0.15E-06
 Optimization of the real space projectors (new method)

[...]

   l    n(q)    QCUT    max X(q) W(low)/X(q) W(high)/X(q)  e(spline)
   0      9    12.315    79.467    0.14E-03    0.22E-04    0.37E-06
   0      9    12.315    66.151    0.14E-03    0.23E-04    0.36E-06
   1      8    12.315    22.077    0.30E-03    0.54E-03    0.45E-06
   1      8    12.315    15.894    0.30E-03    0.55E-03    0.45E-06
 Optimization of the real space projectors (new method)

 maximal supplied QI-value         = 24.76
 optimisation between [QCUT,QGAM] = [ 12.38, 25.00] = [ 42.90,175.06] Ry
 Optimized for a Real-space Cutoff    1.13 Angstroem

   l    n(q)    QCUT    max X(q) W(low)/X(q) W(high)/X(q)  e(spline)
   0      8    12.378    20.381    0.16E-03    0.54E-05    0.27E-06
   0      8    12.378    15.268    0.17E-03    0.61E-05    0.29E-06
   1      8    12.378     5.964    0.38E-03    0.23E-03    0.28E-06
   1      8    12.378     5.382    0.33E-03    0.20E-03    0.25E-06
  PAW_PBE C 08Apr2002                   :
  PAW_PBE Zn 06Sep2000                  :
  PAW_PBE H 15Jun2001                   :
  PAW_PBE N 08Apr2002                   :
  PAW_PBE O 08Apr2002                   :

 POSCAR: Zn_H
  positions in direct lattice
  velocities in cartesian coordinates
 exchange correlation table for  LEXCH =        8
   RHO(1)=    0.500       N(1)  =     2000
   RHO(2)=  100.500       N(2)  =     4000

 ion  position               nearest neighbor table
   1  0.897  0.957  0.158- 107 1.08 117 1.34  65 1.39
   2  0.748  0.952  0.427- 112 1.09 118 1.36  65 1.40
   3  0.898  0.799  0.888- 116 1.08 119 1.34  66 1.39
   4  0.603  0.457  0.656- 110 1.08 120 1.34  67 1.39
   5  0.751  0.304  0.118- 111 1.09 121 1.36  68 1.40
   6  0.247  0.804  0.120- 115 1.09 122 1.36  69 1.40
   7  0.751  0.452  0.925- 101 1.09 123 1.36  67 1.40
   8  0.601  0.298  0.386- 113 1.08 124 1.34  68 1.39
   9  0.253  0.452  0.425- 114 1.09 125 1.36  70 1.40
  10  0.099  0.799  0.389- 104 1.08 126 1.34  69 1.39
  11  0.247  0.952  0.927- 105 1.09 127 1.36  71 1.40
  12  0.252  0.304  0.619- 102 1.09 128 1.36  72 1.40
  13  0.749  0.804  0.620- 108 1.09 129 1.36  66 1.40
  14  0.098  0.957  0.658- 109 1.08 130 1.34  71 1.39
  15  0.401  0.299  0.887- 106 1.08 131 1.34  72 1.39
  16  0.402  0.457  0.156- 103 1.08 132 1.34  70 1.39
  17  0.684  0.032  0.136- 141 1.23 133 1.41  33 1.48
  18  0.826  0.051  0.469- 142 1.23 133 1.41  34 1.48
  19  0.827  0.705  0.577- 143 1.23 134 1.41  35 1.48
  20  0.674  0.551  0.968- 144 1.23 135 1.41  36 1.48
  21  0.672  0.205  0.076- 145 1.23 136 1.41  37 1.48
  22  0.312  0.724  0.412- 146 1.23 137 1.41  38 1.48
  23  0.816  0.532  0.634- 147 1.23 135 1.41  39 1.48
  24  0.814  0.224  0.410- 148 1.23 136 1.41  40 1.48
  25  0.189  0.532  0.134- 149 1.23 138 1.41  41 1.48
  26  0.172  0.705  0.077- 150 1.23 137 1.41  42 1.48
  27  0.170  0.051  0.968- 151 1.23 139 1.41  43 1.48
  28  0.328  0.205  0.576- 152 1.23 140 1.41  44 1.48
  29  0.686  0.724  0.911- 153 1.23 134 1.41  45 1.48
  30  0.311  0.032  0.635- 154 1.23 139 1.41  46 1.48
  31  0.188  0.224  0.911- 155 1.23 140 1.41  47 1.48
  32  0.330  0.551  0.468- 156 1.23 138 1.41  48 1.48
  33  0.686  0.076  0.121-  49 1.39  73 1.41  17 1.48
  34  0.815  0.095  0.455-  50 1.39  73 1.41  18 1.48
  35  0.817  0.660  0.591-  51 1.39  74 1.41  19 1.48
  36  0.684  0.595  0.954-  52 1.39  75 1.41  20 1.48
  37  0.682  0.160  0.090-  53 1.39  76 1.41  21 1.48
  38  0.311  0.680  0.425-  54 1.39  77 1.41  22 1.48
  39  0.813  0.576  0.620-  55 1.39  75 1.41  23 1.48
  40  0.811  0.179  0.424-  56 1.39  76 1.41  24 1.48
  41  0.190  0.576  0.120-  57 1.39  78 1.41  25 1.48
  42  0.183  0.661  0.091-  58 1.39  77 1.41  26 1.48
  43  0.181  0.095  0.954-  59 1.39  79 1.41  27 1.48
  44  0.317  0.160  0.591-  60 1.39  80 1.41  28 1.48
  45  0.689  0.679  0.925-  61 1.39  74 1.41  29 1.48
  46  0.310  0.076  0.620-  62 1.39  79 1.41  30 1.48
  47  0.188  0.180  0.925-  63 1.39  80 1.41  31 1.48
  48  0.318  0.595  0.454-  64 1.39  78 1.41  32 1.48
  49  0.625  0.088  0.950-  88 1.09  33 1.39  53 1.40
  50  0.876  0.126  0.610-  99 1.09  34 1.39  56 1.40
  51  0.878  0.630  0.435-  93 1.09  35 1.39  55 1.40
  52  0.624  0.626  0.110-  90 1.09  36 1.39  61 1.40
  53  0.622  0.130  0.935-  98 1.09  37 1.39  49 1.40
  54  0.373  0.668  0.596-  96 1.09  38 1.39  64 1.40
  55  0.874  0.588  0.449-  86 1.09  39 1.39  51 1.40
  56  0.873  0.168  0.595-  87 1.09  40 1.39  50 1.40
  57  0.128  0.588  0.949-  95 1.09  41 1.39  58 1.40
  58  0.124  0.630  0.935-  91 1.09  42 1.39  57 1.40
  59  0.122  0.126  0.110-  92 1.09  43 1.39  63 1.40
  60  0.376  0.130  0.435-  85 1.09  44 1.39  62 1.40
[...]
 142  0.893  0.040  0.612-  18 1.23
 143  0.894  0.716  0.434-  19 1.23
 144  0.607  0.540  0.111-  20 1.23
 145  0.606  0.216  0.933-  21 1.23
 146  0.371  0.751  0.544-  22 1.23
 147  0.876  0.505  0.502-  23 1.23
 148  0.874  0.251  0.542-  24 1.23
 149  0.130  0.505  0.001-  25 1.23
 150  0.105  0.716  0.934-  26 1.23
 151  0.103  0.040  0.111-  27 1.23
 152  0.395  0.216  0.433-  28 1.23
 153  0.626  0.751  0.043-  29 1.23
 154  0.370  0.005  0.502-  30 1.23
 155  0.128  0.251  0.043-  31 1.23
 156  0.397  0.540  0.611-  32 1.23

IMPORTANT INFORMATION: All symmetrisations will be switched off!
NOSYMM: (Re-)initialisation of all symmetry stuff for point group C_1.

                                     Primitive cell

  volume of cell :    1802.4019

  direct lattice vectors                    reciprocal lattice vectors
     8.292050563 -0.000712770 -0.000995278     0.120597429 -0.000008888 -0.000013047
     0.002046800 32.726201276 -3.375233297     0.000003033  0.030881693  0.003152522
     0.000675719 -0.685248199  6.712600354     0.000019406  0.015527948  0.150558715

  length of vectors
     8.292050653 32.899794132  6.747486129     0.120597430  0.031042187  0.151357340

  position of ions in fractional coordinates (direct lattice)
     0.897295226  0.957242555  0.158295669
     0.748393564  0.951997750  0.426606944
     0.897892845  0.798612871  0.888254197
     0.602683555  0.457117312  0.656478279
     0.750634273  0.303675213  0.118308553
     0.247263838  0.803856893  0.119951730
     0.751383631  0.451872998  0.924949472
     0.601320278  0.298493485  0.386385362
     0.253292861  0.452069555  0.425189735
     0.098670516  0.798637338  0.388555846
     0.246539316  0.952148745  0.926563139
     0.252291123  0.303797814  0.618641195
     0.749230256  0.803709701  0.619540687
     0.097922187  0.957237867  0.657789637
     0.401221027  0.298560394  0.886941171
     0.401928472  0.457199838  0.156497734
     0.684030206  0.031877745  0.135579216
     0.825661532  0.051033236  0.469026143
     0.827246014  0.704763826  0.576918599
     0.674214281  0.550857548  0.967939342
     0.672402334  0.204653715  0.075929041
     0.312213196  0.724059866  0.411616720
     0.815667031  0.531860977  0.634351192
     0.813689993  0.223809165  0.409619967
     0.188925712  0.531892763  0.133883110
     0.171762214  0.704831601  0.077416280
     0.170023492  0.051169354  0.968339605
     0.327972597  0.204728189  0.576491789
     0.686267806  0.723772214  0.910863808
     0.310949440  0.031866961  0.634507671
     0.187525911  0.224060904  0.910651444
     0.329781395  0.551087497  0.467801270
     0.686466074  0.076210499  0.120932311
     0.815421768  0.095281118  0.454658802
     0.817304143  0.660493841  0.590910456
     0.684381308  0.595136371  0.954101531
     0.682387273  0.160408248  0.090459280
     0.311375848  0.679669721  0.425405579
     0.813240917  0.576226498  0.620283062
     0.811195089  0.179484860  0.424299277
     0.190049621  0.576279643  0.120090743
     0.183255297  0.660564153  0.091180793
     0.181467587  0.095425149  0.954346955
     0.316531569  0.160480110  0.590662550
     0.688659307  0.679407536  0.924880438
     0.309778936  0.076230178  0.620289948
     0.188420870  0.179691327  0.924834203
     0.318336861  0.595363901  0.454200317
     0.625180113  0.087917891  0.949742737
     0.875889239  0.125783451  0.609915437
     0.877677572  0.630047707  0.435296016
     0.623923179  0.625572358  0.109675981
     0.621958807  0.129898902  0.935180585
     0.373136276  0.667926639  0.596273824
     0.874477115  0.588034557  0.449318163
     0.872573337  0.167764695  0.595410750
     0.128419201  0.588004098  0.949113984
     0.123812433  0.630019407  0.935339689
     0.121928772  0.126007572  0.109906031
     0.375928117  0.129890818  0.435009664
[...]
     0.892670865  0.039985006  0.612176676
     0.893962066  0.715879080  0.433748634
     0.607334134  0.539733239  0.110965094
     0.605601278  0.215692308  0.932640411
     0.371225512  0.751057837  0.544410032
     0.876025570  0.504984955  0.502138090
     0.873899124  0.250750496  0.541685141
     0.129512261  0.504920254  0.001310943
     0.104580341  0.715832404  0.934242689
     0.102592684  0.040186400  0.111355535
     0.395102929  0.215672405  0.433162397
     0.626266295  0.750656045  0.043366331
     0.370370344  0.004857742  0.502127016
     0.128474974  0.251094239  0.043222112
     0.397119573  0.540051736  0.610750618

  ion indices of the primitive-cell ions
   primitive index   ion index
                 1           1
                 2           2
                 3           3
                 4           4
                 5           5
                 6           6
                 7           7
                 8           8
[...]

  length of vectors
     8.292050653 32.899794132  6.747486129     0.120597430  0.031042187  0.151357340

 FORCES acting on ions
    electron-ion (+dipol)            ewald-force                    non-local-force                 convergence-correction
   0.574E+01 -.435E+02 0.123E+03   -.502E+01 0.483E+02 -.125E+03   -.797E+00 -.488E+01 0.288E+01   0.377E-03 -.694E-03 -.898E-03
   0.225E+03 0.356E+02 -.112E+03   -.228E+03 -.322E+02 0.115E+03   0.332E+01 -.341E+01 -.288E+01   -.102E-02 -.140E-02 0.763E-03
   0.573E+01 0.437E+02 -.123E+03   -.500E+01 -.485E+02 0.125E+03   -.810E+00 0.487E+01 -.288E+01   0.380E-03 0.709E-03 0.889E-03
   -.614E+01 -.440E+02 0.123E+03   0.541E+01 0.488E+02 -.125E+03   0.800E+00 -.488E+01 0.288E+01   -.383E-03 -.738E-03 -.914E-03
   -.225E+03 -.351E+02 0.112E+03   0.228E+03 0.317E+02 -.115E+03   -.332E+01 0.341E+01 0.288E+01   0.102E-02 0.144E-02 -.770E-03
   -.225E+03 -.351E+02 0.112E+03   0.228E+03 0.317E+02 -.115E+03   -.332E+01 0.341E+01 0.288E+01   0.102E-02 0.140E-02 -.778E-03
   -.225E+03 0.351E+02 -.112E+03   0.228E+03 -.317E+02 0.115E+03   -.331E+01 -.341E+01 -.288E+01   0.103E-02 -.142E-02 0.785E-03
   -.498E+01 0.436E+02 -.122E+03   0.425E+01 -.484E+02 0.125E+03   0.812E+00 0.488E+01 -.288E+01   -.394E-03 0.732E-03 0.906E-03
   0.224E+03 0.345E+02 -.112E+03   -.228E+03 -.311E+02 0.115E+03   0.332E+01 -.341E+01 -.288E+01   -.102E-02 -.141E-02 0.779E-03
   -.627E+01 0.437E+02 -.122E+03   0.556E+01 -.485E+02 0.125E+03   0.791E+00 0.488E+01 -.290E+01   -.381E-03 0.700E-03 0.893E-03
   -.224E+03 0.352E+02 -.112E+03   0.227E+03 -.318E+02 0.115E+03   -.332E+01 -.341E+01 -.288E+01   0.101E-02 -.141E-02 0.772E-03
   0.225E+03 -.357E+02 0.112E+03   -.228E+03 0.323E+02 -.115E+03   0.333E+01 0.340E+01 0.287E+01   -.102E-02 0.142E-02 -.770E-03
   0.225E+03 -.346E+02 0.112E+03   -.228E+03 0.312E+02 -.115E+03   0.331E+01 0.341E+01 0.289E+01   -.101E-02 0.138E-02 -.768E-03
   -.563E+01 -.432E+02 0.122E+03   0.491E+01 0.480E+02 -.125E+03   0.800E+00 -.487E+01 0.289E+01   -.391E-03 -.711E-03 -.909E-03
   0.575E+01 0.433E+02 -.122E+03   -.504E+01 -.481E+02 0.125E+03   -.792E+00 0.488E+01 -.289E+01   0.381E-03 0.737E-03 0.902E-03
   0.565E+01 -.438E+02 0.122E+03   -.492E+01 0.487E+02 -.125E+03   -.806E+00 -.488E+01 0.289E+01   0.389E-03 -.728E-03 -.913E-03
   0.268E+02 0.323E+02 0.156E+02   -.268E+02 -.282E+02 -.166E+02   0.991E-02 -.406E+01 0.102E+01   0.288E-03 -.791E-03 0.596E-03
   0.322E+02 0.661E+01 0.130E+02   -.320E+02 -.242E+01 -.138E+02   -.209E+00 -.420E+01 0.779E+00   -.272E-03 -.818E-03 -.727E-03
   0.322E+02 -.620E+01 -.130E+02   -.320E+02 0.201E+01 0.138E+02   -.221E+00 0.420E+01 -.772E+00   -.274E-03 0.826E-03 0.737E-03
   -.323E+02 0.623E+01 0.128E+02   0.321E+02 -.204E+01 -.136E+02   0.211E+00 -.420E+01 0.768E+00   0.246E-03 -.833E-03 -.692E-03
   -.321E+02 -.641E+01 -.131E+02   0.319E+02 0.221E+01 0.139E+02   0.220E+00 0.420E+01 -.782E+00   0.255E-03 0.824E-03 0.713E-03
   -.279E+02 -.318E+02 -.150E+02   0.280E+02 0.277E+02 0.160E+02   -.516E-01 0.406E+01 -.101E+01   -.303E-03 0.793E-03 -.620E-03
   -.270E+02 0.319E+02 0.154E+02   0.270E+02 -.278E+02 -.164E+02   -.131E-01 -.406E+01 0.101E+01   -.239E-03 -.863E-03 0.507E-03
   -.271E+02 -.320E+02 -.156E+02   0.271E+02 0.279E+02 0.166E+02   -.566E-02 0.406E+01 -.103E+01   -.246E-03 0.841E-03 -.517E-03
   0.274E+02 0.316E+02 0.152E+02   -.275E+02 -.275E+02 -.162E+02   0.416E-01 -.406E+01 0.101E+01   0.254E-03 -.861E-03 0.524E-03
   -.329E+02 -.649E+01 -.129E+02   0.327E+02 0.231E+01 0.137E+02   0.183E+00 0.420E+01 -.763E+00   0.277E-03 0.828E-03 0.749E-03
   -.324E+02 0.653E+01 0.130E+02   0.322E+02 -.234E+01 -.138E+02   0.186E+00 -.420E+01 0.772E+00   0.281E-03 -.791E-03 -.744E-03
   0.327E+02 -.669E+01 -.131E+02   -.325E+02 0.250E+01 0.139E+02   -.183E+00 0.420E+01 -.774E+00   -.262E-03 0.841E-03 0.712E-03
   0.272E+02 -.317E+02 -.153E+02   -.272E+02 0.276E+02 0.163E+02   0.872E-02 0.406E+01 -.101E+01   0.304E-03 0.793E-03 -.616E-03
   -.273E+02 0.320E+02 0.153E+02   0.273E+02 -.280E+02 -.163E+02   -.359E-01 -.406E+01 0.101E+01   -.297E-03 -.774E-03 0.608E-03
   0.278E+02 -.321E+02 -.151E+02   -.278E+02 0.280E+02 0.161E+02   0.459E-01 0.406E+01 -.101E+01   0.254E-03 0.855E-03 -.529E-03
   0.325E+02 0.615E+01 0.128E+02   -.323E+02 -.197E+01 -.136E+02   -.185E+00 -.420E+01 0.761E+00   -.257E-03 -.843E-03 -.715E-03
   0.195E+02 0.621E+02 0.382E+02   -.195E+02 -.623E+02 -.390E+02   0.648E-01 0.138E+00 0.784E+00   0.120E-03 -.196E-02 0.685E-03
   -.286E+01 0.266E+02 -.308E+02   0.305E+01 -.265E+02 0.314E+02   -.189E+00 -.164E+00 -.643E+00   -.478E-04 -.186E-02 -.132E-03
   -.278E+01 -.265E+02 0.308E+02   0.297E+01 0.263E+02 -.314E+02   -.192E+00 0.160E+00 0.642E+00   -.419E-04 0.188E-02 0.127E-03
   0.283E+01 0.266E+02 -.309E+02   -.302E+01 -.264E+02 0.315E+02   0.189E+00 -.162E+00 -.645E+00   0.472E-04 -.196E-02 -.145E-03
   0.277E+01 -.264E+02 0.308E+02   -.295E+01 0.262E+02 -.314E+02   0.192E+00 0.161E+00 0.642E+00   0.468E-04 0.197E-02 0.138E-03
   -.197E+02 -.621E+02 -.379E+02   0.197E+02 0.622E+02 0.387E+02   -.650E-01 -.140E+00 -.786E+00   -.139E-03 0.197E-02 -.682E-03
   -.196E+02 0.618E+02 0.381E+02   0.197E+02 -.619E+02 -.389E+02   -.660E-01 0.141E+00 0.783E+00   -.115E-03 -.205E-02 0.668E-03
   -.196E+02 -.619E+02 -.382E+02   0.196E+02 0.620E+02 0.390E+02   -.636E-01 -.135E+00 -.786E+00   -.113E-03 0.204E-02 -.677E-03
   0.193E+02 0.618E+02 0.380E+02   -.194E+02 -.619E+02 -.388E+02   0.647E-01 0.139E+00 0.783E+00   0.127E-03 -.205E-02 0.675E-03
   0.239E+01 -.267E+02 0.307E+02   -.257E+01 0.265E+02 -.313E+02   0.189E+00 0.156E+00 0.645E+00   0.287E-04 0.187E-02 0.140E-03
   0.283E+01 0.266E+02 -.307E+02   -.301E+01 -.264E+02 0.314E+02   0.187E+00 -.157E+00 -.646E+00   0.311E-04 -.187E-02 -.128E-03
   -.251E+01 -.266E+02 0.307E+02   0.269E+01 0.264E+02 -.313E+02   -.190E+00 0.156E+00 0.642E+00   -.413E-04 0.195E-02 0.150E-03
   0.197E+02 -.616E+02 -.382E+02   -.197E+02 0.617E+02 0.389E+02   0.638E-01 -.136E+00 -.785E+00   0.122E-03 0.196E-02 -.673E-03
   -.193E+02 0.621E+02 0.380E+02   0.194E+02 -.623E+02 -.388E+02   -.639E-01 0.138E+00 0.785E+00   -.132E-03 -.198E-02 0.686E-03
   0.196E+02 -.623E+02 -.380E+02   -.196E+02 0.624E+02 0.387E+02   0.629E-01 -.139E+00 -.786E+00   0.137E-03 0.204E-02 -.675E-03
   -.277E+01 0.265E+02 -.308E+02   0.295E+01 -.263E+02 0.314E+02   -.187E+00 -.156E+00 -.647E+00   -.373E-04 -.196E-02 -.154E-03
   0.384E+02 0.831E+02 0.895E+02   -.392E+02 -.845E+02 -.914E+02   0.790E+00 0.142E+01 0.193E+01   -.249E-03 -.889E-03 -.389E-03
   -.364E+02 0.161E+01 -.878E+02   0.374E+02 -.221E+01 0.899E+02   -.100E+01 0.595E+00 -.219E+01   0.208E-03 -.483E-03 0.517E-03
   -.361E+02 -.179E+01 0.878E+02   0.371E+02 0.239E+01 -.899E+02   -.997E+00 -.598E+00 0.219E+01   0.211E-03 0.493E-03 -.519E-03
   0.364E+02 0.194E+01 -.878E+02   -.374E+02 -.254E+01 0.900E+02   0.100E+01 0.600E+00 -.219E+01   -.196E-03 -.597E-03 0.489E-03
   0.361E+02 -.137E+01 0.878E+02   -.371E+02 0.197E+01 -.899E+02   0.999E+00 -.592E+00 0.219E+01   -.200E-03 0.595E-03 -.498E-03
   -.380E+02 -.829E+02 -.894E+02   0.388E+02 0.843E+02 0.913E+02   -.778E+00 -.142E+01 -.193E+01   0.240E-03 0.890E-03 0.390E-03
   -.384E+02 0.825E+02 0.896E+02   0.392E+02 -.839E+02 -.915E+02   -.791E+00 0.141E+01 0.193E+01   0.243E-03 -.990E-03 -.381E-03
   -.388E+02 -.828E+02 -.895E+02   0.395E+02 0.842E+02 0.914E+02   -.790E+00 -.142E+01 -.193E+01   0.240E-03 0.987E-03 0.374E-03
   0.377E+02 0.826E+02 0.895E+02   -.385E+02 -.840E+02 -.914E+02   0.779E+00 0.142E+01 0.193E+01   -.238E-03 -.992E-03 -.386E-03
   0.357E+02 -.168E+01 0.878E+02   -.367E+02 0.227E+01 -.899E+02   0.100E+01 -.592E+00 0.219E+01   -.214E-03 0.486E-03 -.518E-03
   0.361E+02 0.135E+01 -.877E+02   -.371E+02 -.193E+01 0.899E+02   0.100E+01 0.587E+00 -.219E+01   -.212E-03 -.485E-03 0.516E-03
   -.357E+02 -.135E+01 0.877E+02   0.367E+02 0.194E+01 -.899E+02   -.100E+01 -.589E+00 0.219E+01   0.201E-03 0.593E-03 -.491E-03
[...]
   -.602E+02 -.156E+03 0.193E+03   0.841E+02 0.177E+03 -.236E+03   -.239E+02 -.205E+02 0.435E+02   -.892E-03 0.696E-03 0.224E-02
   0.603E+02 0.156E+03 -.193E+03   -.843E+02 -.177E+03 0.236E+03   0.240E+02 0.205E+02 -.435E+02   0.872E-03 -.761E-03 -.221E-02
   0.604E+02 -.156E+03 0.193E+03   -.843E+02 0.177E+03 -.236E+03   0.239E+02 -.204E+02 0.436E+02   0.887E-03 0.736E-03 0.225E-02
   -.149E+03 -.317E+03 -.203E+03   0.171E+03 0.352E+03 0.239E+03   -.216E+02 -.356E+02 -.356E+02   -.878E-03 0.812E-03 -.163E-02
   -.150E+03 0.316E+03 0.203E+03   0.172E+03 -.352E+03 -.238E+03   -.221E+02 0.354E+02 0.354E+02   -.866E-03 -.882E-03 0.155E-02
   -.151E+03 -.317E+03 -.203E+03   0.173E+03 0.352E+03 0.238E+03   -.221E+02 -.355E+02 -.354E+02   -.868E-03 0.855E-03 -.156E-02
   0.149E+03 0.316E+03 0.203E+03   -.171E+03 -.352E+03 -.239E+03   0.218E+02 0.356E+02 0.355E+02   0.864E-03 -.865E-03 0.157E-02
   0.606E+02 -.156E+03 0.193E+03   -.846E+02 0.176E+03 -.236E+03   0.241E+02 -.203E+02 0.435E+02   0.891E-03 0.696E-03 0.224E-02
   0.619E+02 0.156E+03 -.192E+03   -.861E+02 -.176E+03 0.236E+03   0.242E+02 0.203E+02 -.435E+02   0.914E-03 -.668E-03 -.225E-02
   -.609E+02 -.156E+03 0.193E+03   0.849E+02 0.176E+03 -.236E+03   -.241E+02 -.203E+02 0.436E+02   -.885E-03 0.768E-03 0.221E-02
   0.151E+03 -.316E+03 -.203E+03   -.173E+03 0.351E+03 0.239E+03   0.220E+02 -.354E+02 -.355E+02   0.890E-03 0.811E-03 -.161E-02
   -.149E+03 0.318E+03 0.203E+03   0.171E+03 -.353E+03 -.238E+03   -.218E+02 0.356E+02 0.355E+02   -.906E-03 -.755E-03 0.165E-02
   0.149E+03 -.318E+03 -.203E+03   -.171E+03 0.353E+03 0.239E+03   0.216E+02 -.356E+02 -.355E+02   0.864E-03 0.859E-03 -.157E-02
   -.613E+02 0.156E+03 -.192E+03   0.855E+02 -.176E+03 0.236E+03   -.241E+02 0.204E+02 -.435E+02   -.893E-03 -.766E-03 -.223E-02
   -.615E-01 -.764E-01 -.841E-01   -.341E-12 -.128E-11 0.114E-12   0.599E-01 0.128E+00 0.300E-01   0.144E-04 -.789E-04 -.235E-03

 POSITION                                       TOTAL-FORCE (eV/Angst)
      7.44248     31.21780     -2.16923        -0.000756     -0.001411      0.000288
      6.20795     30.86240     -0.35032         0.001117     -0.001110      0.000738
      7.44761     25.52625      3.26610        -0.001193      0.000843     -0.000419
      4.99886     14.50943      2.86320         0.000853     -0.003350      0.001257
      6.22500      9.85653     -0.23156        -0.001086      0.000026      0.000054
      2.05205     26.22481     -1.90826         0.000527     -0.001143     -0.001257
      6.23206     14.15373      4.68289         0.000914      0.001115      0.001914
      4.98705      9.50336      1.58557         0.001492      0.002218     -0.001914
      2.10153     14.50298      1.32804         0.000205      0.000732      0.001413
      0.82008     25.87004     -0.08747         0.002114      0.000565     -0.001961
      2.04689     30.52511      3.00568        -0.001181     -0.000364      0.001902
      2.09305      9.51805      3.12705         0.000168     -0.000549     -0.001271
      6.21472     25.87729      1.44528         0.001860     -0.000035     -0.000425
      0.81438     30.87594      1.18448         0.001853     -0.000821      0.001661
      3.32816      9.16269      4.94557        -0.001156      0.000885     -0.001474
      3.33385     14.85489     -0.49305        -0.001402     -0.001289      0.001838
      5.67217      0.94984      0.80181        -0.000044      0.001554      0.001207
      6.84685      1.34814      2.97531        -0.000435     -0.004690     -0.000899
      6.86140     22.66832      1.49306         0.000681      0.004183     -0.001743
      5.59240     17.36372      4.63745         0.001365     -0.002330     -0.002347
      5.57606      6.64503     -0.18174         0.003936     -0.003119      0.007365
      2.59065     23.41345      0.31884         0.003965      0.002178      0.005774
      6.76507     16.97052      2.46218         0.000788     -0.000557      0.000389
      6.74789      7.04315      1.99340         0.004131      0.001499      0.005473
      1.56776     17.31495     -0.89675        -0.002868     -0.001700     -0.002016
      1.42576     23.01329     -1.85948         0.000408      0.002170     -0.001571
      1.41060      1.01090      6.32720         0.005153     -0.003288     -0.007909
      2.72037      6.30470      3.17843        -0.003623     -0.001789      0.005660
      5.69266     23.06166      3.67068        -0.003747     -0.003119      0.003866
      2.57890      0.60787      4.15133         0.002705     -0.002228     -0.000661
      1.55605      6.70851      5.35639        -0.002485     -0.000008      0.002644
      2.73601     17.71421      1.27979        -0.003388     -0.004629     -0.004011
      5.69245      2.41072      0.55386        -0.000458     -0.001965     -0.000697
      6.76202      2.80605      2.72954        -0.000157     -0.004460     -0.002045
      6.77888     21.20995      1.73641         0.000194     -0.001271      0.000201
      5.67679     18.82227      4.39510        -0.000295     -0.004871     -0.001509
      5.65878      5.18708      0.06512         0.000326      0.001465      0.000861
      2.58362     21.95128      0.56122        -0.000951     -0.001982     -0.003641
      6.74503     18.43208      2.21800         0.000977      0.000162     -0.001943
      6.72712      5.58253      2.24154        -0.000429     -0.001308     -0.002355
      1.57716     18.77702     -1.13915        -0.001150     -0.002720     -0.001975
      1.52098     21.55514     -1.61768         0.000564     -0.000372      0.000106
      1.50558      2.46881      6.08389         0.001506     -0.000533     -0.002228
      2.62542      4.84693      3.42291        -0.000468     -0.000714     -0.000226
      5.71241     21.60016      3.91451         0.000327     -0.001409     -0.001475
      2.56928      2.06945      3.90616        -0.000363     -0.001041      0.001637
      1.56339      5.24674      5.60135         0.000065     -0.001248     -0.001740
      2.64119     19.17253      1.03906        -0.002065     -0.001535     -0.002505
      5.18485      2.22596      6.07788        -0.000708      0.000416     -0.000468
      7.26359      3.69785      3.66870         0.000799      0.001215     -0.001555
      7.27933     20.32016      0.79454         0.000394      0.000508     -0.000219
      5.17496     20.39701     -1.37586         0.000047     -0.000039     -0.003363
      5.15821      3.60982      5.83844         0.000765      0.000694      0.001995
      3.09583     21.44984      1.74777         0.000740     -0.001668      0.002252
      7.25272     18.93562      1.03047         0.000367      0.002139     -0.000133
      7.23617      5.08168      3.42964         0.001042      0.000364     -0.000992
      1.06670     18.59267      4.38624        -0.000216      0.000540      0.001089
      1.02858     19.97711      4.15198         0.000532      0.003081      0.001299
      1.01137      4.04835      0.31233        -0.000764      0.001347      0.000700
      3.11777      3.95248      2.48126        -0.000707      0.000892     -0.000104
[...]
      7.40257      0.88843      3.97345        -0.001225     -0.000263     -0.000859
      7.41454     23.13014      0.49443        -0.000937      0.000110      0.001747
      5.03723     17.58695     -1.07747         0.001479     -0.001168     -0.000077
      5.02275      6.41927      5.53183        -0.004803      0.004134     -0.006148
      3.08013     24.20595      1.11904         0.000171     -0.005231     -0.002663
      7.26542     16.18153      1.66534         0.002559      0.001066     -0.001248
      7.24729      7.83430      2.78890        -0.000338     -0.004744     -0.004302
      1.07496     16.52313     -1.69555        -0.000944      0.005598      0.003737
      0.86928     22.78621      3.85499         0.002807      0.000159      0.001610
      0.85086      1.23877      0.61174        -0.001421     -0.002496      0.009361
      3.27695      6.76103      2.17931         0.003533      0.003036     -0.005046
      5.19460     24.53596     -2.24316        -0.002836     -0.003617     -0.001677
      3.07148     -0.18537      3.35381         0.001490      0.004474      0.003484
      1.06586      8.18765     -0.55750        -0.001915     -0.002629     -0.000900
      3.29445     17.25504      2.27653        -0.000192     -0.002026      0.004630
    total drift:                               -0.001565      0.052033     -0.054320

  FREE ENERGIE OF THE ION-ELECTRON SYSTEM (eV)
  free  energy   TOTEN  =     -1163.45223259 eV

  energy  without entropy=    -1163.45223259  energy(sigma->0) =    -1163.45223259

 reached required accuracy - stopping structural energy minimisation
 writing wavefunctions