 vasp.5.4.4.18Apr17-6-g9f103f2a35 (build May 22 2020 17:00:04) complex

 executed on           IFC15_impi date 2020.09.24  13:32:31

 INCAR:
 POTCAR:    PAW_PBE C 08Apr2002
 POTCAR:    PAW_PBE Co 02Aug2007
 POTCAR:    PAW_PBE H 15Jun2001
 POTCAR:    PAW_PBE N 08Apr2002
 POTCAR:    PAW_PBE O 08Apr2002

 POTCAR:    PAW_PBE C 08Apr2002
   VRHFIN =C: s2p2

   TITEL  = PAW_PBE C 08Apr2002
   POMASS =   12.011; ZVAL   =    4.000    mass and valenz
   ENMAX  =  400.000; ENMIN  =  300.000 eV

 POTCAR:    PAW_PBE Co 02Aug2007
   VRHFIN =Co: d8 s1

   TITEL  = PAW_PBE Co 02Aug2007
   POMASS =   58.933; ZVAL   =    9.000    mass and valenz
   ENMAX  =  267.968; ENMIN  =  200.976 eV

 POTCAR:    PAW_PBE H 15Jun2001
   VRHFIN =H: ultrasoft test

   TITEL  = PAW_PBE H 15Jun2001
   POMASS =    1.000; ZVAL   =    1.000    mass and valenz
   ENMAX  =  250.000; ENMIN  =  200.000 eV

 POTCAR:    PAW_PBE N 08Apr2002
   VRHFIN =N: s2p3

[...]

 POTCAR:    PAW_PBE O 08Apr2002
   VRHFIN =O: s2p4

   TITEL  = PAW_PBE O 08Apr2002
   POMASS =   16.000; ZVAL   =    6.000    mass and valenz
   ENMAX  =  400.000; ENMIN  =  300.000 eV

 Optimization of the real space projectors (new method)

 maximal supplied QI-value         = 25.13
 optimisation between [QCUT,QGAM] = [ 12.32, 24.88] = [ 42.47,173.37] Ry
 Optimized for a Real-space Cutoff    1.06 Angstroem

   l    n(q)    QCUT    max X(q) W(low)/X(q) W(high)/X(q)  e(spline)
   0      8    12.315   115.676    0.34E-03    0.18E-03    0.23E-06
   0      8    12.315    87.132    0.34E-03    0.18E-03    0.22E-06
   1      7    12.315     4.429    0.45E-03    0.12E-03    0.18E-06
   1      7    12.315     2.733    0.35E-03    0.97E-04    0.15E-06
 Optimization of the real space projectors (new method)

[...]

   l    n(q)    QCUT    max X(q) W(low)/X(q) W(high)/X(q)  e(spline)
   0      9    12.315    79.467    0.14E-03    0.22E-04    0.37E-06
   0      9    12.315    66.151    0.14E-03    0.23E-04    0.36E-06
   1      8    12.315    22.077    0.30E-03    0.54E-03    0.45E-06
   1      8    12.315    15.894    0.30E-03    0.55E-03    0.45E-06
 Optimization of the real space projectors (new method)

 maximal supplied QI-value         = 24.76
 optimisation between [QCUT,QGAM] = [ 12.38, 25.00] = [ 42.90,175.06] Ry
 Optimized for a Real-space Cutoff    1.13 Angstroem

   l    n(q)    QCUT    max X(q) W(low)/X(q) W(high)/X(q)  e(spline)
   0      8    12.378    20.381    0.16E-03    0.54E-05    0.27E-06
   0      8    12.378    15.268    0.17E-03    0.61E-05    0.29E-06
   1      8    12.378     5.964    0.38E-03    0.23E-03    0.28E-06
   1      8    12.378     5.382    0.33E-03    0.20E-03    0.25E-06
  PAW_PBE C 08Apr2002                   :
  PAW_PBE Co 02Aug2007                  :
  PAW_PBE H 15Jun2001                   :
  PAW_PBE N 08Apr2002                   :
  PAW_PBE O 08Apr2002                   :

 POSCAR: Co_E
  positions in direct lattice
  velocities in cartesian coordinates
 exchange correlation table for  LEXCH =        8
   RHO(1)=    0.500       N(1)  =     2000
   RHO(2)=  100.500       N(2)  =     4000

 ion  position               nearest neighbor table
   1  0.889  0.953  0.115- 107 1.08 117 1.34  65 1.39
   2  0.752  0.947  0.397- 112 1.09 118 1.36  65 1.40
   3  0.896  0.795  0.860- 116 1.08 119 1.34  66 1.39
   4  0.611  0.453  0.615- 110 1.08 120 1.34  67 1.39
   5  0.742  0.300  0.078- 111 1.09 121 1.36  68 1.40
   6  0.247  0.801  0.080- 115 1.09 122 1.36  69 1.40
   7  0.747  0.447  0.897- 101 1.09 123 1.36  67 1.40
   8  0.604  0.295  0.360- 113 1.08 124 1.34  68 1.39
   9  0.259  0.448  0.398- 114 1.09 125 1.36  70 1.40
  10  0.110  0.796  0.361- 104 1.08 126 1.34  69 1.39
  11  0.241  0.948  0.898- 105 1.09 127 1.36  71 1.40
  12  0.253  0.301  0.579- 102 1.09 128 1.36  72 1.40
  13  0.758  0.800  0.578- 108 1.09 129 1.36  66 1.40
  14  0.103  0.953  0.616- 109 1.08 130 1.34  71 1.39
  15  0.390  0.295  0.861- 106 1.08 131 1.34  72 1.39
  16  0.396  0.453  0.116- 103 1.08 132 1.34  70 1.39
  17  0.680  0.028  0.098- 141 1.23 133 1.42  33 1.48
  18  0.820  0.045  0.435- 142 1.23 133 1.41  34 1.48
  19  0.831  0.702  0.541- 143 1.23 134 1.41  35 1.48
  20  0.680  0.545  0.935- 144 1.23 135 1.41  36 1.48
  21  0.669  0.202  0.041- 145 1.23 136 1.41  37 1.48
  22  0.319  0.720  0.379- 146 1.23 137 1.42  38 1.48
  23  0.820  0.528  0.598- 147 1.23 135 1.42  39 1.48
  24  0.810  0.219  0.378- 148 1.23 136 1.42  40 1.48
  25  0.191  0.529  0.098- 149 1.23 138 1.42  41 1.48
  26  0.180  0.703  0.041- 150 1.23 137 1.41  42 1.48
  27  0.169  0.046  0.935- 151 1.23 139 1.41  43 1.48
  28  0.320  0.203  0.541- 152 1.23 140 1.41  44 1.48
  29  0.690  0.719  0.878- 153 1.23 134 1.42  45 1.48
  30  0.309  0.029  0.598- 154 1.23 139 1.42  46 1.48
  31  0.180  0.220  0.878- 155 1.23 140 1.41  47 1.48
  32  0.331  0.546  0.435- 156 1.23 138 1.41  48 1.48
  33  0.682  0.073  0.084-  49 1.39  73 1.41  17 1.48
  34  0.810  0.090  0.421-  50 1.39  73 1.41  18 1.48
  35  0.822  0.657  0.555-  51 1.39  74 1.41  19 1.48
  36  0.690  0.590  0.921-  52 1.39  75 1.41  20 1.48
  37  0.678  0.157  0.055-  53 1.39  76 1.41  21 1.48
  38  0.318  0.676  0.392-  54 1.39  77 1.41  22 1.48
  39  0.818  0.573  0.585-  55 1.39  75 1.41  23 1.48
  40  0.807  0.175  0.391-  56 1.39  76 1.41  24 1.48
  41  0.193  0.574  0.084-  57 1.39  78 1.41  25 1.48
  42  0.189  0.658  0.055-  58 1.39  77 1.41  26 1.48
  43  0.178  0.091  0.921-  59 1.39  79 1.41  27 1.48
  44  0.310  0.158  0.555-  60 1.39  80 1.41  28 1.48
  45  0.693  0.675  0.892-  61 1.39  74 1.41  29 1.48
  46  0.307  0.074  0.584-  62 1.39  79 1.41  30 1.48
  47  0.182  0.176  0.892-  63 1.39  80 1.41  31 1.48
  48  0.322  0.591  0.421-  64 1.39  78 1.41  32 1.48
  49  0.620  0.086  0.913-  88 1.09  33 1.39  53 1.40
  50  0.871  0.120  0.577-  99 1.09  34 1.39  56 1.40
  51  0.883  0.628  0.399-  93 1.09  35 1.39  55 1.40
  52  0.629  0.620  0.077-  90 1.09  36 1.39  61 1.40
  53  0.617  0.128  0.899-  98 1.09  37 1.39  49 1.40
  54  0.379  0.663  0.564-  96 1.09  38 1.39  64 1.40
  55  0.879  0.586  0.413-  86 1.09  39 1.39  51 1.40
  56  0.868  0.162  0.563-  87 1.09  40 1.39  50 1.40
  57  0.132  0.587  0.913-  95 1.09  41 1.39  58 1.40
  58  0.129  0.629  0.899-  91 1.09  42 1.39  57 1.40
  59  0.117  0.121  0.077-  92 1.09  43 1.39  63 1.40
  60  0.371  0.129  0.399-  85 1.09  44 1.39  62 1.40
[...]
 142  0.885  0.034  0.580-  18 1.23
 143  0.896  0.714  0.396-  19 1.23
 144  0.615  0.534  0.080-  20 1.23
 145  0.604  0.214  0.896-  21 1.23
 146  0.379  0.747  0.512-  22 1.23
 147  0.879  0.502  0.464-  23 1.23
 148  0.870  0.245  0.511-  24 1.23
 149  0.131  0.503  0.964-  25 1.23
 150  0.115  0.715  0.896-  26 1.23
 151  0.103  0.034  0.080-  27 1.23
 152  0.385  0.215  0.396-  28 1.23
 153  0.630  0.745  0.011-  29 1.23
 154  0.368  0.003  0.464-  30 1.23
 155  0.121  0.246  0.012-  31 1.23
 156  0.397  0.534  0.580-  32 1.23

IMPORTANT INFORMATION: All symmetrisations will be switched off!
NOSYMM: (Re-)initialisation of all symmetry stuff for point group C_1.

Automatic generation of k-mesh.
 generate k-points for:    3    1    4
Space group operators:
 irot       det(A)        alpha          n_x          n_y          n_z        tau_x        tau_y        tau_z
    1     1.000000     0.000000     1.000000     0.000000     0.000000     0.000000     0.000000     0.000000

 Subroutine IBZKPT returns following result:

 Found      7 irreducible k-points:

 Following reciprocal coordinates:
            Coordinates               Weight
  0.000000  0.000000  0.000000      1.000000
  0.333333 -0.000000  0.000000      2.000000
  0.000000 -0.000000  0.250000      2.000000
  0.333333 -0.000000  0.250000      2.000000
 -0.333333  0.000000  0.250000      2.000000
  0.000000 -0.000000  0.500000      1.000000
  0.333333  0.000000  0.500000      2.000000

 Following cartesian coordinates:
            Coordinates               Weight
  0.000000  0.000000  0.000000      1.000000
  0.040353  0.000000  0.000003      2.000000
 -0.000002  0.003245  0.037914      2.000000
  0.040351  0.003245  0.037917      2.000000
 -0.040355  0.003244  0.037912      2.000000
 -0.000004  0.006490  0.075829      1.000000
  0.040349  0.006490  0.075831      2.000000

 SYSTEM =  flex_MOF
 POSCAR =  Co_E

 Startparameter for this run:
   NWRITE =      2    write-flag & timer
   PREC   = normal    normal or accurate (medium, high low for compatibility)
   ISTART =      0    job   : 0-new  1-cont  2-samecut
   ICHARG =      2    charge: 1-file 2-atom 10-const
   ISPIN  =      2    spin polarized calculation?
   LNONCOLLINEAR =      F non collinear calculations
   LSORBIT =      F    spin-orbit coupling
   INIWAV =      1    electr: 0-lowe 1-rand  2-diag
   LASPH  =      F    aspherical Exc in radial PAW
   METAGGA=      F    non-selfconsistent MetaGGA calc.

 Electronic Relaxation 1
   ENCUT  =  600.0 eV  44.10 Ry    6.64 a.u.  16.50 65.52 13.33*2*pi/ulx,y,z
   ENINI  =  600.0     initial cutoff
   ENAUG  =  644.9 eV  augmentation charge cutoff
   NELM   =     80;   NELMIN=  8; NELMDL= -5     # of ELM steps
   EDIFF  = 0.1E-05   stopping-criterion for ELM
   LREAL  =      T    real-space projection
   NLSPLINE    = F    spline interpolate recip. space projectors
   LCOMPAT=      F    compatible to vasp.4.4
   GGA_COMPAT  = T    GGA compatible to vasp.4.4-vasp.4.6
   LMAXPAW     = -100 max onsite density
   LMAXMIX     =    2 max onsite mixed and CHGCAR
   VOSKOWN=      0    Vosko Wilk Nusair interpolation
   ROPT   =   -0.00050  -0.00050  -0.00050  -0.00050
   ROPT   =   -0.00050
 Ionic relaxation
   EDIFFG = -.1E-01   stopping-criterion for IOM
   NSW    =    500    number of steps for IOM
   NBLOCK =      1;   KBLOCK =    500    inner block; outer block
   IBRION =      2    ionic relax: 0-MD 1-quasi-New 2-CG
   NFREE  =      1    steps in history (QN), initial steepest desc. (CG)
   ISIF   =      4    stress and relaxation
   IWAVPR =     11    prediction:  0-non 1-charg 2-wave 3-comb
   ISYM   =      0    0-nonsym 1-usesym 2-fastsym
   LCORR  =      T    Harris-Foulkes like correction to forces

   POTIM  = 0.5000    time-step for ionic-motion
   TEIN   =    0.0    initial temperature
   TEBEG  =    0.0;   TEEND  =   0.0 temperature during run
   SMASS  =  -3.00    Nose mass-parameter (am)
   estimated Nose-frequenzy (Omega)   =  0.10E-29 period in steps =****** mass=  -0.156E-26a.u.
   SCALEE = 1.0000    scale energy and forces
   NPACO  =    256;   APACO  = 16.0  distance and # of slots for P.C.
   PSTRESS=    0.0 pullay stress

  Mass of Ions in am
   POMASS =  12.01 58.93  1.00 14.00 16.00
  Ionic Valenz
   ZVAL   =   4.00  9.00  1.00  5.00  6.00
  Atomic Wigner-Seitz radii
  virtual crystal weights
   VCA    =   1.00  1.00  1.00  1.00  1.00
   NELECT =     604.0000    total number of electrons
   NUPDOWN=      -1.0000    fix difference up-down

 DOS related values:
   EMIN   =  10.00;   EMAX   =-10.00  energy-range for DOS
   EFERMI =   0.00
   ISMEAR =     0;   SIGMA  =   0.05  broadening in eV -4-tet -1-fermi 0-gaus

 Electronic relaxation 2 (details)
   IALGO  =     38    algorithm
[...]
  110        set_charge                            0.451399                            1   3
  111          soft_charge                           0.405513                          1   4
  112            fftwav_mpi                            0.351819                       70   5
  113              fft3d_mpi                             0.318638                     70   6
  114                fftbas_plan_mpi                       0.318411                   70   7
  115                  dfftw_execute                         0.153141                210   8
  116                  map_forward                           0.127468                140   8
  117                    map_gather                            0.032349               70   9
  118                    m_alltoallv_z                         0.030109               70   9
  119                    map_scatter                           0.040194               70   9
  120            pw_charge                             0.035867                       70   5
  121            fft3d_mpi                             0.007666                        2   5
  122              fftbas_plan_mpi                       0.007046                      2   6
  123                dfftw_execute                         0.002064                    6   7
  124                map_backward                          0.003692                    4   7
  125                  map_gather                            0.000850                  4   8
  126                  m_alltoallv_z                         0.002734                  4   8
  127                  map_scatter                           0.000050                  4   8
  128          depsum                                0.002513                          1   4
  129          fft3d_mpi                             0.007775                          2   4
  130            fftbas_plan_mpi                       0.007595                        2   5
  131              dfftw_execute                         0.001065                      6   6
  132              map_backward                          0.004956                      4   6
  133                map_gather                            0.000293                    2   7
  134                m_alltoallv_z                         0.004544                    2   7
  135                map_scatter                           0.000087                    2   7
  136        forloc                                0.041171                            1   3
  137        fornlr                                2.077399                            1   3
  138          rspher_all                            0.087045                          3   4
  139          phaser                                0.289215                         21   4
  140          rpro_isp                              1.694311                         21   4
  141            fftwav_mpi                            1.258335                      252   5
  142              fft3d_mpi                             1.135284                    252   6
  143                fftbas_plan_mpi                       1.134344                  252   7
  144                  dfftw_execute                         0.545979                756   8
  145                  map_forward                           0.451067                504   8
  146                    map_gather                            0.112626              252   9
  147                    m_alltoallv_z                         0.109790              252   9
  148                    map_scatter                           0.141899              252   9
  149            rpromu                                0.432438                       84   5
  150              crrexp_mul_wave                       0.205703                  39312   6
  151              rpromu_gemm                           0.146926                  13104   6
  152        fordep                                0.194713                            1   3
  153          setdij_                               0.194003                          6   4
  154        setdij_                               0.635668                           20   3
  155        set_dd_paw                            0.019253                            1   3
  156        strkin                                0.008913                            1   3
  157        strelo                                0.002702                            1   3
  158        strnlr                                6.307007                            1   3
  159          rspher_all                            0.266545                          9   4
  160          phaser                                0.872846                         63   4
  161          rpro_isp                              5.021893                         63   4
  162            fftwav_mpi                            3.725907                      756   5
  163              fft3d_mpi                             3.371447                    756   6
  164                fftbas_plan_mpi                       3.369038                  756   7
  165                  dfftw_execute                         1.624189               2268   8
  166                  map_forward                           1.335053               1512   8
  167                    map_gather                            0.328633              756   9
  168                    m_alltoallv_z                         0.320773              756   9
  169                    map_scatter                           0.424843              756   9
  170            rpromu                                1.278609                      252   5
  171              crrexp_mul_wave                       0.611848                 117936   6
  172              rpromu_gemm                           0.433169                  39312   6
  173        fft3d_mpi                             0.078099                           22   3
  174          fftbas_plan_mpi                       0.075967                         22   4
  175            dfftw_execute                         0.012036                       66   5
  176            map_forward                           0.024903                       20   5
  177              map_gather                            0.000269                     10   6
  178              m_alltoallv_z                         0.022579                     10   6
  179              map_scatter                           0.001899                     10   6
  180            map_backward                          0.022785                       24   5
  181              map_gather                            0.001686                     12   6
  182              m_alltoallv_z                         0.020378                     12   6
  183              map_scatter                           0.000547                     12   6
  184        forhar                                0.072943                            2   3
  185        strehar                               0.002432                            1   3
  186        chggra                                0.015031                            1   3
  187          fft3d_mpi                             0.011767                          3   4
  188            fftbas_plan_mpi                       0.011490                        3   5
  189              dfftw_execute                         0.001646                      9   6
  190              map_forward                           0.005884                      4   6
  191                map_gather                            0.000060                    2   7
  192                m_alltoallv_z                         0.005377                    2   7
  193                map_scatter                           0.000416                    2   7
  194              map_backward                          0.001811                      2   6
  195                map_gather                            0.000213                    1   7
  196                m_alltoallv_z                         0.001536                    1   7
  197                map_scatter                           0.000045                    1   7
  198        brmix                                 0.028298                            1   3
  199          brpre                                 0.000059                          2   4
  200          setg0                                 0.000730                          1   4
  201          broyd                                 0.010181                          1   4
  202            brget                                 0.000898                      219   5
  203            brsav                                 0.000157                       47   5

 Flat profile

 eddav                                1468.771497          67
 total_time                            325.494532           1
 redis_pw                              157.491827       58922
 dfftw_execute                         137.359048      193398
 orth1                                  92.066344       62730
 m_alltoallv_z                          49.938428       64720
 redis_proj                             44.896279       74190
 map_scatter                            37.603412       64720
 fftbas_plan_mpi                        36.813796       64468
 map_gather                             32.678159       64720
 crrexp_mul_work_add                    28.926247     3257592
 racc0                                  27.458179       20882
 fftwav_mpi                             27.229902       41638
 map_forward                            18.766320       85102
 rpro1                                  18.431048       15254
 vhamil                                 15.632417       20882
 phaser                                 14.196914        1029
 crrexp_mul_wave                        13.741059     2549976
 lincom                                 11.361820         952
 force_and_stress                        8.387928           1
 w1_copy                                 4.756556       62646
 fftext_mpi                              3.549968       20882
 eccp                                    3.117558        5628
 setdij_                                 3.006279          91
 pw_charge                               2.361769        4410
 set_charge                              2.257610          63
 kinhamil                                2.071874       20882
 set_dd_paw                              1.346837          65
 apply_precond                           1.257915       15254
 overl                                   1.194465       36150
 soft_charge                             1.113653          63
 overl1                                  0.833911       20882
 setup_precond                           0.733744        5628
 rpromu_gemm                             0.653202       56784
 fft3d_mpi                               0.488017       64466
 map_backward                            0.438217       43830
 rspher_all                              0.408983          14
 broyd                                   0.361524          63
 rpromu                                  0.340067         364
 hamiltmu                                0.294602       20882
 choleski                                0.278006          14
 orthch                                  0.189617           1
 brmix                                   0.187059          63
 depsum                                  0.163730          63
 strnlr                                  0.145724           1
 raccmu_                                 0.138531       20882
 w1_projall                              0.095805       15254
 forhar                                  0.072943           2
 forloc                                  0.041171           1
 setg0                                   0.039402          65
 brget                                   0.035062        9744
 rpro_isp                                0.022924          91
 brgrid                                  0.022465           1
 truncate_high_frequency_w1              0.019351       26510
 brsav                                   0.013789        2538
 strkin                                  0.008913           1
 fornlr                                  0.006828           1
 brpre                                   0.006119         126
 chggra                                  0.003264           1
 strelo                                  0.002702           1
 strehar                                 0.002432           1
 fordep                                  0.000710           1
 redis_pw_over_bands                     0.000001           1
  summed up times    2599.32845401764

 Accumulative profile

 total_time                           2599.328454           1
 eddav                                2213.531598          67
 fft3d_mpi                             314.045272       64466
 fftbas_plan_mpi                       313.597380       64468
 fftwav_mpi                            244.599810       41638
 hamiltmu                              168.088123       20882
 redis_pw                              157.491827       58922
 dfftw_execute                         137.359048      193398
 map_forward                           104.215112       85102
 kinhamil                               94.804236       20882
 fftext_mpi                             92.732363       20882
 orth1                                  92.066344       62730
 raccmu_                                57.356868       20882
 racc0                                  56.384426       20882
 m_alltoallv_z                          49.938428       64720
 redis_proj                             44.896279       74190
 map_scatter                            37.603412       64720
 map_backward                           35.209424       43830
 map_gather                             32.678159       64720
 w1_projall                             31.382420       15254
 rpro1                                  31.286614       15254
 set_charge                             29.927489          63
 crrexp_mul_work_add                    28.926247     3257592
 soft_charge                            26.814065          63
 force_and_stress                       18.322957           1
 vhamil                                 15.632417       20882
 phaser                                 14.196914        1029
 crrexp_mul_wave                        13.741059     2549976
 lincom                                 11.361820         952
 rpro_isp                                7.339194          91
 strnlr                                  6.307007           1
 w1_copy                                 4.756556       62646
 eccp                                    3.117558        5628
 setdij_                                 3.006279          91
 pw_charge                               2.361769        4410
 fornlr                                  2.077399           1
 rpromu                                  1.878761         364
 set_dd_paw                              1.346837          65
 orthch                                  1.283675           1
 apply_precond                           1.257915       15254
 overl                                   1.194465       36150
 overl1                                  0.833911       20882
 setup_precond                           0.733744        5628
 rpromu_gemm                             0.653202       56784
 brmix                                   0.642954          63
 broyd                                   0.410374          63
 rspher_all                              0.408983          14
 choleski                                0.278006          14
 fordep                                  0.194713           1
 depsum                                  0.163730          63
 forhar                                  0.072943           2
 forloc                                  0.041171           1
 setg0                                   0.039402          65
 brget                                   0.035062        9744
 brgrid                                  0.022465           1
 truncate_high_frequency_w1              0.019351       26510
 chggra                                  0.015031           1
 brsav                                   0.013789        2538
 strkin                                  0.008913           1
 brpre                                   0.006119         126
 strelo                                  0.002702           1
 strehar                                 0.002432           1
 redis_pw_over_bands                     0.000001           1

Profiling took   4.039125  2.304118  0.012157  0.011792 seconds
Profiling took   4.635344 seconds