 vasp.6.0.8 29Jun18 (build Mar 14 2019 11:44:20) complex

 executed on             LinuxIFC date 2020.12.22  16:59:25

 INCAR:
 POTCAR:    PAW_PBE C 08Apr2002
 POTCAR:    PAW_PBE Fe 06Sep2000
 POTCAR:    PAW_PBE H 15Jun2001
 POTCAR:    PAW_PBE N 08Apr2002
 POTCAR:    PAW_PBE O 08Apr2002
 POTCAR:    PAW_PBE C 08Apr2002
   VRHFIN =C: s2p2

   TITEL  = PAW_PBE C 08Apr2002
   POMASS =   12.011; ZVAL   =    4.000    mass and valenz
   ENMAX  =  400.000; ENMIN  =  300.000 eV

 POTCAR:    PAW_PBE Fe 06Sep2000
   VRHFIN =Fe:  d7 s1

   TITEL  = PAW_PBE Fe 06Sep2000
   POMASS =   55.847; ZVAL   =    8.000    mass and valenz
   ENMAX  =  267.882; ENMIN  =  200.911 eV

 POTCAR:    PAW_PBE H 15Jun2001
   VRHFIN =H: ultrasoft test

   TITEL  = PAW_PBE H 15Jun2001
   POMASS =    1.000; ZVAL   =    1.000    mass and valenz
   ENMAX  =  250.000; ENMIN  =  200.000 eV

 POTCAR:    PAW_PBE N 08Apr2002
   VRHFIN =N: s2p3

[...]

 POTCAR:    PAW_PBE O 08Apr2002
   VRHFIN =O: s2p4

   TITEL  = PAW_PBE O 08Apr2002
   POMASS =   16.000; ZVAL   =    6.000    mass and valenz
   ENMAX  =  400.000; ENMIN  =  300.000 eV

 Optimization of the real space projectors (new method)

 maximal supplied QI-value         = 25.13
 optimisation between [QCUT,QGAM] = [ 12.32, 24.88] = [ 42.47,173.37] Ry
 Optimized for a Real-space Cutoff    1.06 Angstroem

   l    n(q)    QCUT    max X(q) W(low)/X(q) W(high)/X(q)  e(spline)
   0      8    12.315   115.676    0.34E-03    0.18E-03    0.23E-06
   0      8    12.315    87.132    0.34E-03    0.18E-03    0.22E-06
   1      7    12.315     4.429    0.45E-03    0.12E-03    0.18E-06
   1      7    12.315     2.733    0.35E-03    0.97E-04    0.15E-06
 Optimization of the real space projectors (new method)

[...]

   l    n(q)    QCUT    max X(q) W(low)/X(q) W(high)/X(q)  e(spline)
   0      9    12.315    79.467    0.14E-03    0.22E-04    0.37E-06
   0      9    12.315    66.151    0.14E-03    0.23E-04    0.36E-06
   1      8    12.315    22.077    0.30E-03    0.54E-03    0.45E-06
   1      8    12.315    15.894    0.30E-03    0.55E-03    0.45E-06
 Optimization of the real space projectors (new method)

 maximal supplied QI-value         = 24.76
 optimisation between [QCUT,QGAM] = [ 12.38, 25.00] = [ 42.90,175.06] Ry
 Optimized for a Real-space Cutoff    1.13 Angstroem

   l    n(q)    QCUT    max X(q) W(low)/X(q) W(high)/X(q)  e(spline)
   0      8    12.378    20.381    0.16E-03    0.54E-05    0.27E-06
   0      8    12.378    15.268    0.17E-03    0.61E-05    0.29E-06
   1      8    12.378     5.964    0.38E-03    0.23E-03    0.28E-06
   1      8    12.378     5.382    0.33E-03    0.20E-03    0.25E-06
  PAW_PBE C 08Apr2002                   :
  PAW_PBE Fe 06Sep2000                  :
  PAW_PBE H 15Jun2001                   :
  PAW_PBE N 08Apr2002                   :
  PAW_PBE O 08Apr2002                   :

 POSCAR: FeH_exp1
  positions in direct lattice
  velocities in cartesian coordinates
 exchange correlation table for  LEXCH =        8
   RHO(1)=    0.500       N(1)  =     2000
   RHO(2)=  100.500       N(2)  =     4000

 ion  position               nearest neighbor table
   1  0.893  0.969  0.088- 107 1.09 117 1.35  65 1.40
   2  0.933  0.984  0.398- 112 1.09 118 1.35  65 1.40
   3  0.892  0.813  0.918- 116 1.09 119 1.35  66 1.40
   4  0.606  0.469  0.591- 110 1.09 120 1.35  67 1.40
   5  0.568  0.297  0.114- 111 1.09 121 1.35  68 1.40
   6  0.066  0.797  0.107- 115 1.09 122 1.35  69 1.40
   7  0.567  0.484  0.902- 101 1.09 123 1.35  67 1.40
   8  0.608  0.313  0.424- 113 1.09 124 1.35  68 1.40
   9  0.432  0.484  0.402- 114 1.09 125 1.35  70 1.40
  10  0.106  0.811  0.418- 104 1.09 126 1.35  69 1.40
  11  0.068  0.984  0.897- 105 1.09 127 1.35  71 1.40
  12  0.433  0.296  0.613- 102 1.09 128 1.35  72 1.40
  13  0.932  0.798  0.608- 108 1.09 129 1.35  66 1.40
  14  0.108  0.968  0.587- 109 1.09 130 1.35  71 1.40
  15  0.394  0.311  0.925- 106 1.09 131 1.35  72 1.40
  16  0.393  0.468  0.091- 103 1.09 132 1.35  70 1.40
  17  0.816  0.034  0.445- 141 1.23 133 1.42  33 1.48
  18  0.846  0.084  0.050- 142 1.23 133 1.42  34 1.48
  19  0.844  0.698  0.959- 143 1.23 134 1.42  35 1.48
  20  0.654  0.584  0.551- 144 1.23 135 1.42  36 1.48
  21  0.656  0.198  0.464- 145 1.23 136 1.42  37 1.48
  22  0.184  0.747  0.063- 146 1.23 137 1.42  38 1.48
  23  0.684  0.534  0.945- 147 1.23 135 1.42  39 1.48
  24  0.686  0.248  0.070- 148 1.23 136 1.42  40 1.48
  25  0.315  0.533  0.445- 149 1.23 138 1.42  41 1.48
  26  0.153  0.696  0.457- 150 1.23 137 1.42  42 1.48
  27  0.155  0.083  0.548- 151 1.23 139 1.42  43 1.48
  28  0.346  0.196  0.962- 152 1.23 140 1.42  44 1.48
  29  0.814  0.748  0.564- 153 1.23 134 1.42  45 1.48
  30  0.185  0.033  0.942- 154 1.23 139 1.42  46 1.48
  31  0.316  0.247  0.568- 155 1.23 140 1.42  47 1.48
  32  0.345  0.583  0.050- 156 1.23 138 1.42  48 1.48
  33  0.775  0.076  0.444-  49 1.39  73 1.42  17 1.48
  34  0.805  0.126  0.061-  50 1.39  73 1.42  18 1.48
  35  0.804  0.656  0.950-  51 1.39  74 1.42  19 1.48
  36  0.694  0.626  0.560-  52 1.39  75 1.42  20 1.48
  37  0.696  0.156  0.453-  53 1.39  76 1.42  21 1.48
  38  0.225  0.705  0.065-  54 1.39  77 1.42  22 1.48
  39  0.725  0.576  0.943-  55 1.39  75 1.42  23 1.48
  40  0.727  0.206  0.071-  56 1.39  76 1.42  24 1.48
  41  0.273  0.575  0.442-  57 1.39  78 1.42  25 1.48
  42  0.194  0.655  0.448-  58 1.39  77 1.42  26 1.48
  43  0.196  0.125  0.559-  59 1.39  79 1.42  27 1.48
  44  0.306  0.154  0.950-  60 1.39  80 1.42  28 1.48
  45  0.773  0.706  0.567-  61 1.39  74 1.42  29 1.48
  46  0.227  0.074  0.941-  62 1.39  79 1.42  30 1.48
  47  0.275  0.205  0.568-  63 1.39  80 1.42  31 1.48
  48  0.304  0.625  0.059-  64 1.39  78 1.42  32 1.48
  49  0.739  0.071  0.631-  88 1.09  33 1.39  53 1.40
  50  0.801  0.171  0.879-  99 1.09  34 1.39  56 1.40
  51  0.800  0.611  0.133-  93 1.09  35 1.39  55 1.40
  52  0.698  0.671  0.378-  90 1.09  36 1.39  61 1.40
  53  0.701  0.111  0.636-  98 1.09  37 1.39  49 1.40
  54  0.261  0.709  0.879-  96 1.09  38 1.39  64 1.40
  55  0.761  0.572  0.129-  86 1.09  39 1.39  51 1.40
  56  0.762  0.211  0.884-  87 1.09  40 1.39  50 1.40
  57  0.238  0.570  0.628-  95 1.09  41 1.39  58 1.40
  58  0.198  0.610  0.631-  91 1.09  42 1.39  57 1.40
  59  0.200  0.170  0.377-  92 1.09  43 1.39  63 1.40
  60  0.301  0.109  0.132-  85 1.09  44 1.39  62 1.40
[...]
 142  0.876  0.086  0.882-  18 1.23
 143  0.874  0.696  0.126-  19 1.23
 144  0.624  0.586  0.384-  20 1.23
 145  0.626  0.196  0.632-  21 1.23
 146  0.178  0.786  0.900-  22 1.23
 147  0.678  0.495  0.108-  23 1.23
 148  0.680  0.288  0.908-  24 1.23
 149  0.321  0.494  0.608-  25 1.23
 150  0.124  0.694  0.624-  26 1.23
 151  0.126  0.085  0.381-  27 1.23
 152  0.376  0.194  0.129-  28 1.23
 153  0.820  0.788  0.402-  29 1.23
 154  0.180  0.993  0.104-  30 1.23
 155  0.322  0.286  0.406-  31 1.23
 156  0.375  0.585  0.884-  32 1.23

IMPORTANT INFORMATION: All symmetrisations will be switched off!
NOSYMM: (Re-)initialisation of all symmetry stuff for point group C_1.

                                     Primitive cell

  volume of cell :    3667.3452

  direct lattice vectors                    reciprocal lattice vectors
    23.983471919 -0.000560860  0.007058447     0.041695385  0.000003599 -0.000012754
    -0.001031421 25.792871084  3.905617276     0.000002213  0.039434497 -0.004385710
     0.001786534  0.670624865  6.029983002    -0.000050240 -0.025541710  0.168678584

  length of vectors
    23.983472964 26.086894145  6.067160449     0.041695387  0.039677627  0.170601425

  position of ions in fractional coordinates (direct lattice)
     0.893340782  0.969445811  0.087825481
     0.933303517  0.984326192  0.398181522
     0.892256219  0.812985069  0.918008977
     0.606465421  0.469277402  0.590829297
     0.568143027  0.297038937  0.114057257
     0.066450060  0.796598179  0.106991395
     0.566774909  0.484093991  0.902027806
     0.607637935  0.312539785  0.424163406
     0.432363237  0.483530696  0.401617981
     0.106196827  0.811111806  0.418455781
     0.067656611  0.983755387  0.897082374
     0.433323253  0.296329368  0.613128204
     0.931868427  0.797531077  0.607878147
     0.107526626  0.968363446  0.587310030
     0.393550141  0.310931892  0.924575519
     0.392823619  0.468281820  0.091117679
     0.816034354  0.033847600  0.444505479
     0.845990166  0.084266129  0.050106890
     0.844400849  0.698267483  0.958843762
     0.653660376  0.584172273  0.550981116
     0.655823517  0.197827968  0.464221646
     0.183610184  0.746542897  0.062725653
     0.683932481  0.534085543  0.945301898
     0.685726127  0.248210690  0.069598361
     0.314982246  0.533028877  0.444824991
     0.153366394  0.696341704  0.457004572
     0.155336382  0.083190690  0.548429116
     0.346152445  0.196100396  0.961539063
     0.814228089  0.748341374  0.564290638
     0.185304943  0.032613173  0.942476945
     0.316154482  0.246726865  0.567645508
     0.345180068  0.583139044  0.050250806
     0.774672573  0.075842788  0.443846455
     0.805451745  0.126246151  0.061123412
     0.803694564  0.656297348  0.949522051
     0.694278166  0.626206317  0.560425911
     0.696449474  0.155909663  0.453317015
     0.225259256  0.704667459  0.065028409
     0.725337213  0.576153024  0.943079570
     0.727205874  0.206284213  0.070548990
     0.273232997  0.574829862  0.442072922
     0.194237026  0.654507126  0.447722753
     0.196130537  0.125000747  0.559072540
     0.305519093  0.154208330  0.950425460
     0.772689685  0.706353376  0.566767929
     0.226937386  0.074409708  0.941345292
     0.274705499  0.204794530  0.568243020
     0.304241562  0.624949533  0.059246619
     0.739440759  0.071101224  0.630855347
     0.801320656  0.171288149  0.878901818
     0.799620225  0.611425549  0.132568277
     0.698327791  0.671106873  0.377502006
     0.700599763  0.110892073  0.635579345
     0.260769117  0.709371242  0.878886772
     0.760704423  0.571595678  0.129393633
     0.762451819  0.211053985  0.883580362
     0.237687520  0.570105479  0.628110544
     0.198439872  0.609684300  0.630877438
     0.200402240  0.170039867  0.376875092
     0.301357635  0.109107227  0.132329204
[...]
     0.875528234  0.086167089  0.882444632
     0.874149956  0.696478986  0.125681177
     0.623940459  0.585921154  0.384104237
     0.626300495  0.195959403  0.631912541
     0.178020777  0.785768953  0.900345862
     0.678483940  0.494808710  0.107581019
     0.680077456  0.287573606  0.907895749
     0.320697370  0.493907013  0.607577568
     0.123534206  0.694422522  0.623850436
     0.125650421  0.085248046  0.381181565
     0.375726977  0.194079789  0.129083201
     0.819846263  0.787540955  0.401772457
     0.179545920  0.993275951  0.104273041
     0.321718423  0.286192791  0.406311329
     0.375071354  0.585042694  0.883593016

  ion indices of the primitive-cell ions
   primitive index   ion index
                 1           1
                 2           2
                 3           3
                 4           4
                 5           5
                 6           6
                 7           7
                 8           8
[...]
   0.174E+03 -.421E+02 0.458E+01   -.177E+03 0.453E+02 -.372E+01   0.332E+01 -.320E+01 -.881E+00   0.104E-05 0.720E-05 -.100E-04
   -.199E+02 0.166E+03 0.496E+01   0.227E+02 -.170E+03 -.524E+01   -.277E+01 0.369E+01 0.261E+00   -.128E-03 0.140E-03 -.116E-04
   -.220E+02 -.164E+03 -.504E+01   0.248E+02 0.167E+03 0.533E+01   -.277E+01 -.369E+01 -.280E+00   -.115E-03 -.133E-03 0.179E-04
   0.194E+02 0.165E+03 0.534E+01   -.221E+02 -.168E+03 -.565E+01   0.275E+01 0.371E+01 0.294E+00   -.340E-05 -.179E-04 -.122E-05
   0.175E+03 0.415E+02 -.472E+01   -.178E+03 -.447E+02 0.384E+01   0.331E+01 0.320E+01 0.895E+00   0.165E-03 0.152E-03 -.166E-05
   -.175E+03 -.414E+02 0.439E+01   0.178E+03 0.446E+02 -.350E+01   -.332E+01 -.320E+01 -.910E+00   -.141E-03 -.129E-03 0.250E-05
   0.173E+03 0.435E+02 -.442E+01   -.176E+03 -.467E+02 0.351E+01   0.331E+01 0.322E+01 0.924E+00   -.883E-05 -.266E-05 0.122E-04
   0.224E+02 -.164E+03 -.480E+01   -.252E+02 0.168E+03 0.507E+01   0.277E+01 -.368E+01 -.253E+00   0.104E-04 0.177E-04 -.726E-05
   0.118E+03 0.485E+02 -.231E+02   -.118E+03 -.485E+02 0.239E+02   0.460E+00 0.125E-01 -.784E+00   0.768E-04 -.723E-04 0.796E-05
   -.629E+02 -.109E+03 0.304E+02   0.629E+02 0.110E+03 -.310E+02   -.390E-03 -.638E+00 0.625E+00   0.560E-04 -.805E-04 0.829E-05
   -.609E+02 0.107E+03 -.304E+02   0.609E+02 -.108E+03 0.310E+02   -.119E-02 0.629E+00 -.623E+00   0.994E-04 0.918E-04 -.112E-04
   0.627E+02 -.109E+03 0.304E+02   -.627E+02 0.109E+03 -.310E+02   0.450E-02 -.632E+00 0.625E+00   0.138E-04 0.375E-04 -.300E-05
   0.613E+02 0.107E+03 -.303E+02   -.613E+02 -.107E+03 0.309E+02   -.666E-03 0.632E+00 -.623E+00   0.546E-04 -.526E-04 0.710E-05
   -.117E+03 -.481E+02 0.236E+02   0.117E+03 0.481E+02 -.244E+02   -.462E+00 -.976E-02 0.786E+00   -.903E-04 0.925E-04 -.872E-05
   -.118E+03 0.486E+02 -.232E+02   0.118E+03 -.486E+02 0.240E+02   -.463E+00 0.103E-01 -.781E+00   0.287E-04 0.158E-04 -.560E-05
   -.119E+03 -.511E+02 0.233E+02   0.120E+03 0.512E+02 -.240E+02   -.462E+00 -.141E-01 0.784E+00   0.477E-04 -.510E-04 0.566E-05
   0.118E+03 0.500E+02 -.237E+02   -.119E+03 -.500E+02 0.245E+02   0.462E+00 0.125E-01 -.781E+00   -.331E-04 0.365E-04 -.553E-05
   0.630E+02 0.110E+03 -.305E+02   -.630E+02 -.110E+03 0.311E+02   0.103E-01 0.637E+00 -.627E+00   -.883E-04 0.890E-04 -.103E-04
   0.613E+02 -.108E+03 0.305E+02   -.613E+02 0.108E+03 -.311E+02   0.463E-02 -.637E+00 0.628E+00   -.790E-04 -.766E-04 0.133E-04
   -.634E+02 0.109E+03 -.303E+02   0.634E+02 -.110E+03 0.309E+02   -.721E-02 0.640E+00 -.617E+00   -.318E-04 -.546E-04 0.183E-05
   0.119E+03 -.505E+02 0.233E+02   -.119E+03 0.505E+02 -.241E+02   0.460E+00 -.157E-01 0.776E+00   0.977E-04 0.105E-03 -.854E-05
   -.119E+03 0.506E+02 -.234E+02   0.120E+03 -.506E+02 0.241E+02   -.464E+00 0.146E-01 -.784E+00   -.798E-04 -.867E-04 0.575E-05
   0.117E+03 -.489E+02 0.234E+02   -.118E+03 0.489E+02 -.242E+02   0.461E+00 -.596E-02 0.787E+00   -.448E-04 -.363E-04 0.761E-05
   -.611E+02 -.108E+03 0.306E+02   0.611E+02 0.108E+03 -.312E+02   -.117E-01 -.629E+00 0.631E+00   -.228E-04 0.487E-04 -.445E-05
   0.194E+03 0.179E+03 -.103E+03   -.194E+03 -.180E+03 0.105E+03   0.632E-01 0.148E+01 -.171E+01   0.745E-04 -.655E-04 0.108E-04
   -.195E+03 -.179E+03 0.114E+03   0.196E+03 0.179E+03 -.116E+03   -.119E+01 -.296E+00 0.195E+01   0.495E-04 -.696E-04 0.474E-05
   -.194E+03 0.177E+03 -.114E+03   0.195E+03 -.177E+03 0.116E+03   -.120E+01 0.286E+00 -.195E+01   0.102E-03 0.624E-04 0.103E-04
   0.195E+03 -.178E+03 0.114E+03   -.196E+03 0.178E+03 -.116E+03   0.120E+01 -.287E+00 0.195E+01   0.783E-05 0.594E-04 -.242E-04
   0.194E+03 0.177E+03 -.114E+03   -.195E+03 -.177E+03 0.116E+03   0.119E+01 0.292E+00 -.195E+01   0.575E-04 -.566E-04 0.108E-04
   -.192E+03 -.178E+03 0.104E+03   0.192E+03 0.180E+03 -.105E+03   -.639E-01 -.148E+01 0.172E+01   -.727E-04 0.978E-04 -.172E-04
   -.193E+03 0.179E+03 -.103E+03   0.193E+03 -.180E+03 0.105E+03   -.667E-01 0.148E+01 -.172E+01   0.463E-04 -.325E-05 0.103E-04
   -.194E+03 -.181E+03 0.103E+03   0.195E+03 0.183E+03 -.105E+03   -.600E-01 -.149E+01 0.171E+01   0.463E-04 -.514E-04 0.230E-05
   0.193E+03 0.180E+03 -.104E+03   -.193E+03 -.182E+03 0.106E+03   0.640E-01 0.148E+01 -.172E+01   -.464E-04 0.244E-04 0.220E-05
   0.195E+03 0.179E+03 -.115E+03   -.196E+03 -.179E+03 0.116E+03   0.120E+01 0.293E+00 -.195E+01   -.866E-04 0.681E-04 0.305E-05
   0.194E+03 -.178E+03 0.114E+03   -.195E+03 0.178E+03 -.116E+03   0.119E+01 -.299E+00 0.195E+01   -.874E-04 -.570E-04 -.455E-05
   -.195E+03 0.179E+03 -.114E+03   0.197E+03 -.180E+03 0.116E+03   -.119E+01 0.303E+00 -.195E+01   -.194E-04 -.662E-04 0.195E-04
[...]
   -.236E+03 0.296E+03 -.260E+03   0.268E+03 -.293E+03 0.304E+03   -.315E+02 -.275E+01 -.443E+02   0.202E-03 0.236E-03 -.199E-04
   0.240E+03 -.297E+03 0.260E+03   -.271E+03 0.294E+03 -.304E+03   0.315E+02 0.280E+01 0.443E+02   -.366E-04 0.133E-04 -.623E-05
   0.236E+03 0.295E+03 -.260E+03   -.267E+03 -.292E+03 0.305E+03   0.312E+02 -.269E+01 -.445E+02   0.823E-04 -.651E-04 -.485E-06
   -.314E+03 -.231E+03 0.187E+03   0.308E+03 0.270E+03 -.223E+03   0.543E+01 -.394E+02 0.359E+02   -.261E-03 0.190E-03 -.290E-04
   -.316E+03 0.232E+03 -.187E+03   0.311E+03 -.272E+03 0.223E+03   0.526E+01 0.395E+02 -.359E+02   0.271E-05 -.516E-04 0.134E-04
   -.317E+03 -.238E+03 0.187E+03   0.311E+03 0.277E+03 -.223E+03   0.550E+01 -.396E+02 0.357E+02   0.613E-04 -.558E-04 0.110E-04
   0.315E+03 0.234E+03 -.188E+03   -.309E+03 -.273E+03 0.224E+03   -.558E+01 0.393E+02 -.360E+02   -.124E-04 -.390E-05 0.583E-05
   0.241E+03 0.300E+03 -.260E+03   -.272E+03 -.297E+03 0.305E+03   0.316E+02 -.260E+01 -.443E+02   -.172E-03 0.217E-03 -.238E-04
   0.237E+03 -.298E+03 0.261E+03   -.268E+03 0.295E+03 -.305E+03   0.314E+02 0.245E+01 0.444E+02   -.162E-03 -.204E-03 0.200E-04
   -.240E+03 0.298E+03 -.261E+03   0.272E+03 -.296E+03 0.305E+03   -.313E+02 -.250E+01 -.444E+02   -.470E-05 -.525E-04 0.638E-05
   0.316E+03 -.235E+03 0.188E+03   -.311E+03 0.275E+03 -.224E+03   -.545E+01 -.394E+02 0.360E+02   0.272E-03 0.234E-03 -.402E-04
   -.316E+03 0.236E+03 -.187E+03   0.310E+03 -.276E+03 0.222E+03   0.559E+01 0.395E+02 -.357E+02   -.246E-03 -.188E-03 0.267E-04
   0.316E+03 -.234E+03 0.185E+03   -.310E+03 0.274E+03 -.221E+03   -.536E+01 -.397E+02 0.356E+02   -.329E-04 0.442E-06 -.836E-06
   -.237E+03 -.298E+03 0.260E+03   0.269E+03 0.295E+03 -.304E+03   -.316E+02 0.262E+01 0.442E+02   0.127E-04 0.429E-04 -.843E-05
   -.274E-01 0.119E+00 0.180E+00   -.119E-11 0.796E-12 -.114E-12   0.144E-01 -.121E+00 -.111E+00   0.601E-04 0.718E-05 -.543E-05

 POSITION                                       TOTAL-FORCE (eV/Angst)
     21.42457     25.06319      4.32218        -0.000849     -0.000280     -0.001442
     22.38355     25.65511      6.25202        -0.000019      0.000744      0.001549
     21.40020     21.58436      8.71708         0.000406      0.000629      0.002058
     14.54572     12.49990      5.39979         0.001117     -0.000117     -0.001719
     13.62594      7.73766      1.85189         0.000838     -0.003599     -0.002582
      1.59307     20.61827      3.75683         0.001085     -0.001904     -0.001460
     13.59434     13.09078      7.33390        -0.000124      0.000868      0.001464
     14.57370      8.34541      3.78265        -0.002232     -0.001174     -0.001439
     10.36979     12.74074      4.31329        -0.000389      0.003031      0.001848
      2.54688     21.20147      5.69192        -0.000906      0.000585      0.000552
      1.62323     25.97544      9.25204        -0.000595      0.000180      0.001041
     10.39339      8.05412      4.85756        -0.000569     -0.003812     -0.003335
     22.34970     20.97775      6.78692        -0.001929     -0.003623     -0.002043
      2.57891     25.37068      7.32429        -0.000796     -0.000361     -0.000754
      9.44003      8.63965      6.79233         0.001755      0.000695      0.000519
      9.42095     12.13922      2.38114         0.000653      0.002536     -0.000154
     19.57210      1.17067      2.81832        -0.002537     -0.001032      0.002353
     20.28978      2.20659      0.63723         0.001911      0.003302     -0.002834
     20.25266     18.65287      8.51494         0.000380     -0.000783      0.001923
     15.67743     15.43662      5.60857        -0.002043     -0.000435     -0.000240
     15.72955      5.41350      3.57652        -0.001228      0.002909     -0.003588
      4.40295     19.29745      3.29524        -0.000786     -0.000272     -0.002906
     16.40421     14.40916      7.79092         0.000190      0.000744      0.001845
     16.44596      6.44836      1.39393         0.000989     -0.002214     -0.002636
      7.55461     14.04648      4.76632        -0.000293      0.000794     -0.000788
      3.67836     18.26704      5.47646        -0.001698     -0.000746      0.000095
      3.72640      2.51343      3.63303         0.003719      0.003949      0.000227
      8.30345      5.70263      6.56640         0.002448      0.003932     -0.000271
     19.52825     19.67984      6.33115         0.000617     -0.003194     -0.000239
      4.44591      1.47313      5.81180        -0.001550     -0.001495      0.001649
      7.58324      6.74429      4.38875         0.001086     -0.002141      0.001653
      8.27810     15.07434      2.58297         0.001722      0.001409     -0.002076
     18.58005      2.25342      2.97807        -0.003748      0.003156      0.002236
     19.31751      3.29679      0.86733         0.002868     -0.003101     -0.000273
     19.27641     17.56412      8.29452         0.003607      0.001597      0.002807
     16.65156     16.52710      5.82998        -0.001868     -0.001969     -0.001580
     16.70393      4.32497      3.34733        -0.001807      0.002451     -0.000694
      5.40189     18.21888      3.14587         0.001354     -0.002189      0.002648
     17.39720     15.49269      7.94211         0.001839     -0.001903      0.003979
     17.44083      5.36757      1.23621         0.000206      0.001118     -0.001023
      6.55327     15.12282      4.91269        -0.003802      0.002653     -0.000213
      4.65860     17.18176      5.25739         0.004364      0.005267     -0.006461
      4.70476      3.59895      3.86079        -0.001055     -0.005852      0.005004
      7.32895      4.61468      6.33548        -0.003393      0.003606      0.000135
     18.53207     18.59854      6.18180        -0.001324      0.001183     -0.004530
      5.44435      2.55040      5.96851         0.003035      0.003421     -0.000428
      6.58920      5.66316      4.22828        -0.001140      0.003232     -0.000894
      7.29623     16.15880      2.80022        -0.003773     -0.001727      0.005544
     17.73541      2.25656      4.08696         0.002296     -0.001717     -0.001954
     19.21984      5.00698      5.97441         0.001765     -0.002184     -0.001271
     19.17728     15.85888      3.19302        -0.000534     -0.001111      0.001235
     16.74831     17.56254      4.90235         0.000329      0.000944     -0.002729
     16.80384      3.28607      4.27058         0.001267     -0.004308      0.004384
      6.25499     18.88598      8.07205        -0.000324      0.001221      0.003093
     18.24397     14.82944      3.01804        -0.001033     -0.000026     -0.001781
     18.28760      6.03581      6.15765        -0.000739      0.000653      0.000760
      5.70111     15.12575      6.01579         0.002140     -0.000939      0.000674
      4.75978     16.14848      6.18677        -0.000133     -0.000626      0.001633
      4.80684      4.63845      2.93808        -0.000801     -0.000039      0.000149
      7.22773      2.90276      1.22620         0.000135     -0.001347      0.006707
[...]
     20.99969      2.81379      5.66384        -0.001268      0.002761     -0.000447
     20.96466     18.04799      3.48421        -0.000322     -0.001487     -0.002117
     14.96434     15.36983      4.60893         0.001467      0.001937     -0.001611
     15.02179      5.47778      4.58019        -0.000428     -0.003645     -0.000006
      4.27035     20.87093      8.49924        -0.001406     -0.002325     -0.003609
     16.27208     12.83430      2.58603         0.000746      0.003035      0.000524
     16.31194      8.02582      6.60255         0.000720     -0.002933      0.000619
      7.69201     13.14656      5.59496        -0.002242     -0.000686      0.002879
      2.96318     18.32945      6.47483        -0.002547      0.001406      0.002587
      3.01413      2.45435      2.63235         0.001024     -0.000756     -0.002623
      9.01127      5.09223      1.53902         0.000659      0.001533      0.003459
     19.66267     20.58192      5.50430        -0.000119     -0.004427     -0.000550
      4.30530     25.68927      4.50939         0.001362      0.000369      0.002030
      7.71636      7.65404      3.57008         0.001068     -0.004432     -0.002016
      8.99649     15.68228      7.61565        -0.001166      0.000262     -0.001063
    total drift:                               -0.012886     -0.002257      0.069158

  FREE ENERGIE OF THE ION-ELECTRON SYSTEM (eV)
  free  energy   TOTEN  =     -1185.87547228 eV

  energy  without entropy=    -1185.84096936  energy(sigma->0) =    -1185.85822082

 reached required accuracy - stopping structural energy minimisation
 writing wavefunctions

 total charge

[...]

 magnetization (x)

# of ion       s       p       d       tot
    1        0.003   0.020   0.000   0.023
    2        0.003   0.021   0.000   0.024
    3        0.003   0.020   0.000   0.023
    4       -0.003  -0.020   0.000  -0.023
    5       -0.003  -0.022   0.000  -0.024
    6        0.003   0.021   0.000   0.024
    7       -0.003  -0.021   0.000  -0.024
    8       -0.003  -0.020   0.000  -0.023
    9       -0.003  -0.021   0.000  -0.024
   10        0.003   0.020   0.000   0.023
   11        0.003   0.021   0.000   0.024
   12       -0.003  -0.021   0.000  -0.024
   13        0.003   0.021   0.000   0.024
   14        0.003   0.020   0.000   0.023
   15       -0.003  -0.020   0.000  -0.023
   16       -0.003  -0.020   0.000  -0.023
   17        0.000   0.001   0.000   0.001
   18        0.000   0.001   0.000   0.001
   19        0.000   0.001   0.000   0.001
   20       -0.000  -0.001   0.000  -0.001
   21       -0.000  -0.001   0.000  -0.001
   22        0.000   0.001   0.000   0.001
   23       -0.000  -0.001   0.000  -0.001
   24       -0.000  -0.001   0.000  -0.001
   25       -0.000  -0.001   0.000  -0.001
   26        0.000   0.001   0.000   0.001
   27        0.000   0.001   0.000   0.001
   28       -0.000  -0.001   0.000  -0.001
   29        0.000   0.001   0.000   0.001
   30        0.000   0.001   0.000   0.001
   31       -0.000  -0.001   0.000  -0.001
   32       -0.000  -0.001   0.000  -0.001
   33       -0.000  -0.000   0.000  -0.000
   34       -0.000  -0.000   0.000  -0.000
   35       -0.000  -0.000   0.000  -0.000
   36        0.000   0.000   0.000   0.000
   37        0.000   0.000   0.000   0.000
   38       -0.000  -0.000   0.000  -0.000
   39        0.000   0.000   0.000   0.000
   40        0.000   0.000   0.000   0.000
   41        0.000   0.000   0.000   0.000
   42       -0.000  -0.000   0.000  -0.000
   43       -0.000  -0.000   0.000  -0.000
   44        0.000   0.000   0.000   0.000
   45       -0.000  -0.000   0.000  -0.000
   46       -0.000  -0.000   0.000  -0.000
   47        0.000   0.000   0.000   0.000
   48        0.000   0.000   0.000   0.000
   49        0.000   0.000   0.000   0.000
   50        0.000   0.000   0.000   0.000
   51        0.000   0.000   0.000   0.000
   52       -0.000  -0.000   0.000  -0.000
   53       -0.000  -0.000   0.000  -0.000
   54        0.000   0.000   0.000   0.000
   55       -0.000  -0.000   0.000  -0.000
   56       -0.000  -0.000   0.000  -0.000
   57       -0.000  -0.000   0.000  -0.000
   58        0.000   0.000   0.000   0.000
   59        0.000   0.000   0.000   0.000
   60       -0.000  -0.000   0.000  -0.000
[...]
  142        0.000   0.001   0.000   0.001
  143        0.000   0.001   0.000   0.001
  144       -0.000  -0.001   0.000  -0.001
  145       -0.000  -0.001   0.000  -0.001
  146        0.000   0.001   0.000   0.002
  147       -0.000  -0.002   0.000  -0.002
  148       -0.000  -0.002   0.000  -0.002
  149       -0.000  -0.002   0.000  -0.002
  150        0.000   0.001   0.000   0.001
  151        0.000   0.001   0.000   0.001
  152       -0.000  -0.001   0.000  -0.001
  153        0.000   0.001   0.000   0.002
  154        0.000   0.001   0.000   0.002
  155       -0.000  -0.002   0.000  -0.002
  156       -0.000  -0.001   0.000  -0.001
tot         -0.000  -0.001   0.000  -0.001