 vasp.5.4.4.18Apr17-6-g9f103f2a35 (build May 22 2020 17:00:04) complex

 executed on           IFC15_impi date 2020.09.30  00:51:35

 INCAR:
 POTCAR:    PAW_PBE C 08Apr2002
 POTCAR:    PAW_PBE Fe 06Sep2000
 POTCAR:    PAW_PBE H 15Jun2001
 POTCAR:    PAW_PBE N 08Apr2002
 POTCAR:    PAW_PBE O 08Apr2002

 POTCAR:    PAW_PBE C 08Apr2002
   VRHFIN =C: s2p2

   TITEL  = PAW_PBE C 08Apr2002
   POMASS =   12.011; ZVAL   =    4.000    mass and valenz
   ENMAX  =  400.000; ENMIN  =  300.000 eV

 POTCAR:    PAW_PBE Fe 06Sep2000
   VRHFIN =Fe:  d7 s1

   TITEL  = PAW_PBE Fe 06Sep2000
   POMASS =   55.847; ZVAL   =    8.000    mass and valenz
   ENMAX  =  267.882; ENMIN  =  200.911 eV

 POTCAR:    PAW_PBE H 15Jun2001
   VRHFIN =H: ultrasoft test

   TITEL  = PAW_PBE H 15Jun2001
   POMASS =    1.000; ZVAL   =    1.000    mass and valenz
   ENMAX  =  250.000; ENMIN  =  200.000 eV

 POTCAR:    PAW_PBE N 08Apr2002
   VRHFIN =N: s2p3

[...]

 POTCAR:    PAW_PBE O 08Apr2002
   VRHFIN =O: s2p4

   TITEL  = PAW_PBE O 08Apr2002
   POMASS =   16.000; ZVAL   =    6.000    mass and valenz
   ENMAX  =  400.000; ENMIN  =  300.000 eV

 Optimization of the real space projectors (new method)

 maximal supplied QI-value         = 25.13
 optimisation between [QCUT,QGAM] = [ 12.32, 24.88] = [ 42.47,173.37] Ry
 Optimized for a Real-space Cutoff    1.06 Angstroem

   l    n(q)    QCUT    max X(q) W(low)/X(q) W(high)/X(q)  e(spline)
   0      8    12.315   115.676    0.34E-03    0.18E-03    0.23E-06
   0      8    12.315    87.132    0.34E-03    0.18E-03    0.22E-06
   1      7    12.315     4.429    0.45E-03    0.12E-03    0.18E-06
   1      7    12.315     2.733    0.35E-03    0.97E-04    0.15E-06
 Optimization of the real space projectors (new method)

[...]

   l    n(q)    QCUT    max X(q) W(low)/X(q) W(high)/X(q)  e(spline)
   0      9    12.315    79.467    0.14E-03    0.22E-04    0.37E-06
   0      9    12.315    66.151    0.14E-03    0.23E-04    0.36E-06
   1      8    12.315    22.077    0.30E-03    0.54E-03    0.45E-06
   1      8    12.315    15.894    0.30E-03    0.55E-03    0.45E-06
 Optimization of the real space projectors (new method)

 maximal supplied QI-value         = 24.76
 optimisation between [QCUT,QGAM] = [ 12.38, 25.00] = [ 42.90,175.06] Ry
 Optimized for a Real-space Cutoff    1.13 Angstroem

   l    n(q)    QCUT    max X(q) W(low)/X(q) W(high)/X(q)  e(spline)
   0      8    12.378    20.381    0.16E-03    0.54E-05    0.27E-06
   0      8    12.378    15.268    0.17E-03    0.61E-05    0.29E-06
   1      8    12.378     5.964    0.38E-03    0.23E-03    0.28E-06
   1      8    12.378     5.382    0.33E-03    0.20E-03    0.25E-06
  PAW_PBE C 08Apr2002                   :
  PAW_PBE Fe 06Sep2000                  :
  PAW_PBE H 15Jun2001                   :
  PAW_PBE N 08Apr2002                   :
  PAW_PBE O 08Apr2002                   :

 POSCAR: FeH_middle
  positions in direct lattice
  velocities in cartesian coordinates
 exchange correlation table for  LEXCH =        8
   RHO(1)=    0.500       N(1)  =     2000
   RHO(2)=  100.500       N(2)  =     4000

 ion  position               nearest neighbor table
   1  0.789  0.956  0.079- 107 1.09 117 1.35  65 1.40
   2  0.896  0.963  0.413- 112 1.08 118 1.34  65 1.40
   3  0.786  0.807  0.924- 116 1.09 119 1.35  66 1.40
   4  0.710  0.456  0.578- 110 1.09 120 1.35  67 1.40
   5  0.608  0.300  0.090- 111 1.08 121 1.34  68 1.40
   6  0.103  0.799  0.092- 115 1.08 122 1.34  69 1.40
   7  0.604  0.463  0.913- 101 1.08 123 1.34  67 1.40
   8  0.714  0.307  0.425- 113 1.09 124 1.35  68 1.40
   9  0.393  0.462  0.414- 114 1.08 125 1.34  70 1.40
  10  0.210  0.806  0.426- 104 1.09 126 1.35  69 1.40
  11  0.107  0.962  0.915- 105 1.08 127 1.34  71 1.40
  12  0.397  0.299  0.591- 102 1.08 128 1.34  72 1.40
  13  0.893  0.800  0.590- 108 1.08 129 1.34  66 1.40
  14  0.213  0.956  0.581- 109 1.09 130 1.35  71 1.40
  15  0.290  0.306  0.926- 106 1.09 131 1.35  72 1.40
  16  0.286  0.455  0.080- 103 1.09 132 1.35  70 1.40
  17  0.709  0.037  0.410- 141 1.23 133 1.42  33 1.48
  18  0.846  0.054  0.040- 142 1.23 133 1.42  34 1.48
  19  0.840  0.709  0.963- 143 1.23 134 1.42  35 1.48
  20  0.654  0.554  0.540- 144 1.23 135 1.42  36 1.48
  21  0.660  0.209  0.463- 145 1.23 136 1.42  37 1.48
  22  0.291  0.726  0.095- 146 1.23 137 1.42  38 1.48
  23  0.791  0.537  0.909- 147 1.23 135 1.42  39 1.48
  24  0.797  0.226  0.093- 148 1.23 136 1.42  40 1.48
  25  0.204  0.536  0.411- 149 1.23 138 1.42  41 1.48
  26  0.154  0.708  0.464- 150 1.23 137 1.42  42 1.48
  27  0.160  0.053  0.542- 151 1.23 139 1.42  43 1.48
  28  0.346  0.208  0.964- 152 1.23 140 1.42  44 1.48
  29  0.703  0.727  0.593- 153 1.23 134 1.42  45 1.48
  30  0.296  0.036  0.913- 154 1.23 139 1.42  46 1.48
  31  0.209  0.226  0.595- 155 1.23 140 1.42  47 1.48
  32  0.340  0.553  0.041- 156 1.23 138 1.42  48 1.48
  33  0.696  0.081  0.417-  49 1.39  73 1.42  17 1.48
  34  0.831  0.098  0.057-  50 1.39  73 1.42  18 1.48
  35  0.825  0.665  0.947-  51 1.39  74 1.42  19 1.48
  36  0.668  0.598  0.556-  52 1.39  75 1.42  20 1.48
  37  0.675  0.165  0.447-  53 1.39  76 1.42  21 1.48
  38  0.304  0.681  0.088-  54 1.39  77 1.42  22 1.48
  39  0.804  0.581  0.917-  55 1.39  75 1.42  23 1.48
  40  0.811  0.182  0.086-  56 1.39  76 1.42  24 1.48
  41  0.190  0.580  0.418-  57 1.39  78 1.42  25 1.48
  42  0.169  0.664  0.448-  58 1.39  77 1.42  26 1.48
  43  0.174  0.097  0.559-  59 1.39  79 1.42  27 1.48
  44  0.331  0.164  0.948-  60 1.39  80 1.42  28 1.48
  45  0.690  0.682  0.586-  61 1.39  74 1.42  29 1.48
  46  0.310  0.080  0.919-  62 1.39  79 1.41  30 1.48
  47  0.196  0.181  0.588-  63 1.39  80 1.41  31 1.48
  48  0.325  0.597  0.058-  64 1.39  78 1.42  32 1.48
  49  0.624  0.094  0.599-  88 1.09  33 1.39  53 1.40
  50  0.893  0.127  0.891-  99 1.09  34 1.39  56 1.40
  51  0.887  0.635  0.113-  93 1.09  35 1.39  55 1.40
  52  0.607  0.628  0.390-  90 1.09  36 1.39  61 1.40
  53  0.614  0.136  0.613-  98 1.09  37 1.39  49 1.40
  54  0.376  0.668  0.906-  96 1.09  38 1.39  64 1.40
  55  0.876  0.594  0.099-  86 1.09  39 1.39  51 1.40
  56  0.883  0.169  0.905-  87 1.09  40 1.39  50 1.40
  57  0.117  0.593  0.600-  95 1.09  41 1.39  58 1.40
  58  0.107  0.635  0.614-  91 1.09  42 1.39  57 1.40
  59  0.113  0.127  0.392-  92 1.09  43 1.39  63 1.40
  60  0.393  0.135  0.115-  85 1.09  44 1.39  62 1.40
[...]
 142  0.909  0.042  0.882-  18 1.23
 143  0.903  0.721  0.122-  19 1.23
 144  0.591  0.542  0.381-  20 1.23
 145  0.597  0.221  0.622-  21 1.23
 146  0.341  0.752  0.945-  22 1.23
 147  0.841  0.510  0.059-  23 1.23
 148  0.846  0.253  0.943-  24 1.23
 149  0.155  0.509  0.562-  25 1.23
 150  0.091  0.720  0.623-  26 1.23
 151  0.096  0.041  0.383-  27 1.23
 152  0.410  0.220  0.123-  28 1.23
 153  0.654  0.753  0.442-  29 1.23
 154  0.344  0.009  0.064-  30 1.23
 155  0.160  0.252  0.444-  31 1.23
 156  0.403  0.541  0.882-  32 1.23

IMPORTANT INFORMATION: All symmetrisations will be switched off!
NOSYMM: (Re-)initialisation of all symmetry stuff for point group C_1.

Automatic generation of k-mesh.
 generate k-points for:    3    1    4
Space group operators:
 irot       det(A)        alpha          n_x          n_y          n_z        tau_x        tau_y        tau_z
    1     1.000000     0.000000     1.000000     0.000000     0.000000     0.000000     0.000000     0.000000

 Subroutine IBZKPT returns following result:

 Found      7 irreducible k-points:

 Following reciprocal coordinates:
            Coordinates               Weight
  0.000000  0.000000  0.000000      1.000000
  0.333333  0.000000  0.000000      2.000000
  0.000000  0.000000  0.250000      2.000000
  0.333333  0.000000  0.250000      2.000000
 -0.333333  0.000000  0.250000      2.000000
  0.000000  0.000000  0.500000      1.000000
  0.333333  0.000000  0.500000      2.000000

 Following cartesian coordinates:
            Coordinates               Weight
  0.000000  0.000000  0.000000      1.000000
  0.032293 -0.000007 -0.000007      2.000000
  0.000028 -0.003542  0.044517      2.000000
  0.032321 -0.003549  0.044510      2.000000
 -0.032265 -0.003536  0.044523      2.000000
  0.000056 -0.007085  0.089033      1.000000
  0.032349 -0.007092  0.089026      2.000000

 SYSTEM =  flex_MOF
 POSCAR =  FeH_middle

 Startparameter for this run:
   NWRITE =      2    write-flag & timer
   PREC   = normal    normal or accurate (medium, high low for compatibility)
   ISTART =      0    job   : 0-new  1-cont  2-samecut
   ICHARG =      2    charge: 1-file 2-atom 10-const
   ISPIN  =      2    spin polarized calculation?
   LNONCOLLINEAR =      F non collinear calculations
   LSORBIT =      F    spin-orbit coupling
   INIWAV =      1    electr: 0-lowe 1-rand  2-diag
   LASPH  =      F    aspherical Exc in radial PAW
   METAGGA=      F    non-selfconsistent MetaGGA calc.

 Electronic Relaxation 1
   ENCUT  =  600.0 eV  44.10 Ry    6.64 a.u.  20.62 65.96 11.34*2*pi/ulx,y,z
   ENINI  =  600.0     initial cutoff
   ENAUG  =  644.9 eV  augmentation charge cutoff
   NELM   =     80;   NELMIN=  3; NELMDL= -8     # of ELM steps
   EDIFF  = 0.1E-05   stopping-criterion for ELM
   LREAL  =      T    real-space projection
   NLSPLINE    = F    spline interpolate recip. space projectors
   LCOMPAT=      F    compatible to vasp.4.4
   GGA_COMPAT  = T    GGA compatible to vasp.4.4-vasp.4.6
   LMAXPAW     = -100 max onsite density
   LMAXMIX     =    2 max onsite mixed and CHGCAR
   VOSKOWN=      0    Vosko Wilk Nusair interpolation
   ROPT   =   -0.00050  -0.00050  -0.00050  -0.00050
   ROPT   =   -0.00050
 Ionic relaxation
   EDIFFG = -.1E-01   stopping-criterion for IOM
   NSW    =   1000    number of steps for IOM
   NBLOCK =      1;   KBLOCK =   1000    inner block; outer block
   IBRION =      2    ionic relax: 0-MD 1-quasi-New 2-CG
   NFREE  =      1    steps in history (QN), initial steepest desc. (CG)
   ISIF   =      4    stress and relaxation
   IWAVPR =     11    prediction:  0-non 1-charg 2-wave 3-comb
   ISYM   =      0    0-nonsym 1-usesym 2-fastsym
   LCORR  =      T    Harris-Foulkes like correction to forces

   POTIM  = 0.5000    time-step for ionic-motion
   TEIN   =    0.0    initial temperature
   TEBEG  =    0.0;   TEEND  =   0.0 temperature during run
   SMASS  =  -3.00    Nose mass-parameter (am)
   estimated Nose-frequenzy (Omega)   =  0.10E-29 period in steps =****** mass=  -0.243E-26a.u.
   SCALEE = 1.0000    scale energy and forces
   NPACO  =    256;   APACO  = 16.0  distance and # of slots for P.C.
   PSTRESS=    0.0 pullay stress

  Mass of Ions in am
   POMASS =  12.01 55.85  1.00 14.00 16.00
  Ionic Valenz
   ZVAL   =   4.00  8.00  1.00  5.00  6.00
  Atomic Wigner-Seitz radii
  virtual crystal weights
   VCA    =   1.00  1.00  1.00  1.00  1.00
   NELECT =     600.0000    total number of electrons
   NUPDOWN=      -1.0000    fix difference up-down

 DOS related values:
   EMIN   =  10.00;   EMAX   =-10.00  energy-range for DOS
   EFERMI =   0.00
   ISMEAR =     0;   SIGMA  =   0.05  broadening in eV -4-tet -1-fermi 0-gaus

 Electronic relaxation 2 (details)
   IALGO  =     38    algorithm
[...]
  110        set_charge                            0.908123                            1   3
  111          soft_charge                           0.861854                          1   4
  112            fftwav_mpi                            0.747599                      140   5
  113              fft3d_mpi                             0.672398                    140   6
  114                fftbas_plan_mpi                       0.671870                  140   7
  115                  dfftw_execute                         0.312967                420   8
  116                  map_forward                           0.284350                280   8
  117                    map_gather                            0.072716              140   9
  118                    m_alltoallv_z                         0.067051              140   9
  119                    map_scatter                           0.088309              140   9
  120            pw_charge                             0.075821                      140   5
  121            fft3d_mpi                             0.008142                        2   5
  122              fftbas_plan_mpi                       0.007328                      2   6
  123                dfftw_execute                         0.003094                    6   7
  124                map_backward                          0.003194                    4   7
  125                  map_gather                            0.001051                  4   8
  126                  m_alltoallv_z                         0.001986                  4   8
  127                  map_scatter                           0.000066                  4   8
  128          depsum                                0.003528                          1   4
  129          fft3d_mpi                             0.007944                          2   4
  130            fftbas_plan_mpi                       0.007772                        2   5
  131              dfftw_execute                         0.001283                      6   6
  132              map_backward                          0.005249                      4   6
  133                map_gather                            0.000201                    2   7
  134                m_alltoallv_z                         0.004498                    2   7
  135                map_scatter                           0.000515                    2   7
  136        forloc                                0.092065                            1   3
  137        fornlr                                4.301033                            1   3
  138          rspher_all                            0.096931                          3   4
  139          phaser                                0.306488                         21   4
  140          rpro_isp                              3.519794                         21   4
  141            fftwav_mpi                            2.635792                      504   5
  142              fft3d_mpi                             2.365070                    504   6
  143                fftbas_plan_mpi                       2.363172                  504   7
  144                  dfftw_execute                         1.121359               1512   8
  145                  map_forward                           0.975923               1008   8
  146                    map_gather                            0.250058              504   9
  147                    m_alltoallv_z                         0.228962              504   9
  148                    map_scatter                           0.303328              504   9
  149            rpromu                                0.878763                      126   5
  150              crrexp_mul_wave                       0.443880                  78624   6
  151              rpromu_gemm                           0.283914                  19656   6
  152        fordep                                0.181177                            1   3
  153          setdij_                               0.180693                          6   4
  154        setdij_                               0.600662                           20   3
  155        set_dd_paw                            0.030305                            1   3
  156        strkin                                0.018943                            1   3
  157        strelo                                0.004344                            1   3
  158        strnlr                               12.314791                            1   3
  159          rspher_all                            0.285985                          9   4
  160          phaser                                0.919794                         63   4
  161          rpro_isp                             10.508975                         63   4
  162            fftwav_mpi                            7.904856                     1512   5
  163              fft3d_mpi                             7.110106                   1512   6
  164                fftbas_plan_mpi                       7.104615                 1512   7
  165                  dfftw_execute                         3.367315               4536   8
  166                  map_forward                           2.941084               3024   8
  167                    map_gather                            0.764248             1512   9
  168                    m_alltoallv_z                         0.673308             1512   9
  169                    map_scatter                           0.916597             1512   9
  170            rpromu                                2.589096                      378   5
  171              crrexp_mul_wave                       1.302846                 235872   6
  172              rpromu_gemm                           0.845232                  58968   6
  173        fft3d_mpi                             0.152756                           22   3
  174          fftbas_plan_mpi                       0.150837                         22   4
  175            dfftw_execute                         0.012741                       66   5
  176            map_forward                           0.018521                       20   5
  177              map_gather                            0.001224                     10   6
  178              m_alltoallv_z                         0.015441                     10   6
  179              map_scatter                           0.001688                     10   6
  180            map_backward                          0.104379                       24   5
  181              map_gather                            0.001311                     12   6
  182              m_alltoallv_z                         0.100206                     12   6
  183              map_scatter                           0.002681                     12   6
  184        forhar                                0.164377                            2   3
  185        strehar                               0.011442                            1   3
  186        chggra                                0.013269                            1   3
  187          fft3d_mpi                             0.010219                          3   4
  188            fftbas_plan_mpi                       0.009917                        3   5
  189              dfftw_execute                         0.001798                      9   6
  190              map_forward                           0.004332                      4   6
  191                map_gather                            0.000201                    2   7
  192                m_alltoallv_z                         0.003727                    2   7
  193                map_scatter                           0.000370                    2   7
  194              map_backward                          0.001768                      2   6
  195                map_gather                            0.000100                    1   7
  196                m_alltoallv_z                         0.001459                    1   7
  197                map_scatter                           0.000190                    1   7
  198        brmix                                 0.018982                            1   3
  199          brpre                                 0.000070                          2   4
  200          setg0                                 0.001186                          1   4
  201          broyd                                 0.014978                          1   4
  202            brget                                 0.002512                      366   5
  203            brsav                                 0.001094                      163   5

 Flat profile

 eddav                                 976.188065          63
 dfftw_execute                         265.828408      353898
 total_time                            257.248902           1
 redis_pw                              207.719645      107998
 orth1                                 148.558779      116958
 redis_proj                             88.053144      136358
 m_alltoallv_z                          84.586552      118192
 map_scatter                            78.349171      118192
 map_gather                             68.403914      118192
 fftbas_plan_mpi                        63.876663      117968
 fftwav_mpi                             56.569174       77300
 crrexp_mul_work_add                    55.621405     6073080
 racc0                                  53.306514       38930
 map_forward                            38.771389      156230
 rpro1                                  35.538193       28346
 vhamil                                 34.786823       38930
 crrexp_mul_wave                        26.523103     4762680
 lincom                                 22.094716         896
 phaser                                 14.179029         973
 w1_copy                                 9.649149      116790
 force_and_stress                        8.157290           1
 fftext_mpi                              7.397473       38930
 eccp                                    7.112221       10584
 kinhamil                                4.350831       38930
 pw_charge                               4.307289        7840
 setdij_                                 2.596590          84
 apply_precond                           2.482563       28346
 overl                                   2.142628       67290
 set_charge                              1.964537          56
 set_dd_paw                              1.897638          58
 soft_charge                             1.722475          56
 overl1                                  1.704359       38930
 setup_precond                           1.354558       10584
 rpromu_gemm                             1.244431       85176
 map_backward                            0.801070       79702
 fft3d_mpi                               0.686890      117966
 rpromu                                  0.641926         546
 strnlr                                  0.600037           1
 hamiltmu                                0.596894       38930
 rspher_all                              0.425283          14
 broyd                                   0.386266          56
 fornlr                                  0.377820           1
 raccmu_                                 0.278324       38930
 choleski                                0.277655          14
 orthch                                  0.243972           1
 depsum                                  0.199550          56
 w1_projall                              0.176347       28346
 forhar                                  0.164377           2
 brmix                                   0.143239          56
 forloc                                  0.092065           1
 setg0                                   0.068988          58
 brget                                   0.059624        9273
 truncate_high_frequency_w1              0.034522       49514
 rpro_isp                                0.022109          91
 strkin                                  0.018943           1
 brgrid                                  0.017753           1
 brsav                                   0.015672        2092
 strehar                                 0.011442           1
 brpre                                   0.005480         112
 strelo                                  0.004344           1
 chggra                                  0.003050           1
 fordep                                  0.000484           1
 redis_pw_over_bands                     0.000001           1
  summed up times    2640.64174890518

 Accumulative profile

 total_time                           2640.641749           1
 eddav                                2292.365000          63
 fft3d_mpi                             601.263104      117966
 fftbas_plan_mpi                       600.617167      117968
 fftwav_mpi                            470.863446       77300
 hamiltmu                              338.545499       38930
 dfftw_execute                         265.828408      353898
 redis_pw                              207.719645      107998
 map_forward                           198.595939      156230
 kinhamil                              192.251180       38930
 fftext_mpi                            187.900349       38930
 orth1                                 148.558779      116958
 raccmu_                               110.910602       38930
 racc0                                 108.927919       38930
 redis_proj                             88.053144      136358
 m_alltoallv_z                          84.586552      118192
 map_scatter                            78.349171      118192
 map_backward                           72.316157       79702
 map_gather                             68.403914      118192
 w1_projall                             60.342449       28346
 rpro1                                  60.166103       28346
 crrexp_mul_work_add                    55.621405     6073080
 set_charge                             52.275857          56
 soft_charge                            49.529255          56
 vhamil                                 34.786823       38930
 force_and_stress                       26.969559           1
 crrexp_mul_wave                        26.523103     4762680
 lincom                                 22.094716         896
 rpro_isp                               15.279934          91
 phaser                                 14.179029         973
 strnlr                                 12.314791           1
 w1_copy                                 9.649149      116790
 eccp                                    7.112221       10584
 pw_charge                               4.307289        7840
 fornlr                                  4.301033           1
 rpromu                                  3.781550         546
 setdij_                                 2.596590          84
 apply_precond                           2.482563       28346
 overl                                   2.142628       67290
 set_dd_paw                              1.897638          58
 orthch                                  1.750932           1
 overl1                                  1.704359       38930
 setup_precond                           1.354558       10584
 rpromu_gemm                             1.244431       85176
 brmix                                   0.679270          56
 broyd                                   0.461562          56
 rspher_all                              0.425283          14
 choleski                                0.277655          14
 depsum                                  0.199550          56
 fordep                                  0.181177           1
 forhar                                  0.164377           2
 forloc                                  0.092065           1
 setg0                                   0.068988          58
 brget                                   0.059624        9273
 truncate_high_frequency_w1              0.034522       49514
 strkin                                  0.018943           1
 brgrid                                  0.017753           1
 brsav                                   0.015672        2092
 chggra                                  0.013269           1
 strehar                                 0.011442           1
 brpre                                   0.005480         112
 strelo                                  0.004344           1
 redis_pw_over_bands                     0.000001           1

Profiling took   7.434428  4.245039  0.009004  0.008614 seconds
Profiling took   8.693066 seconds