 vasp.5.4.4.18Apr17-6-g9f103f2a35 (build May 22 2020 17:00:04) complex

 executed on           IFC15_impi date 2020.09.24  00:44:08

 INCAR:
 POTCAR:    PAW_PBE C 08Apr2002
 POTCAR:    PAW_PBE Co 02Aug2007
 POTCAR:    PAW_PBE H 15Jun2001
 POTCAR:    PAW_PBE N 08Apr2002
 POTCAR:    PAW_PBE O 08Apr2002

 POTCAR:    PAW_PBE C 08Apr2002
   VRHFIN =C: s2p2

   TITEL  = PAW_PBE C 08Apr2002
   POMASS =   12.011; ZVAL   =    4.000    mass and valenz
   ENMAX  =  400.000; ENMIN  =  300.000 eV

 POTCAR:    PAW_PBE Co 02Aug2007
   VRHFIN =Co: d8 s1

   TITEL  = PAW_PBE Co 02Aug2007
   POMASS =   58.933; ZVAL   =    9.000    mass and valenz
   ENMAX  =  267.968; ENMIN  =  200.976 eV

 POTCAR:    PAW_PBE H 15Jun2001
   VRHFIN =H: ultrasoft test

   TITEL  = PAW_PBE H 15Jun2001
   POMASS =    1.000; ZVAL   =    1.000    mass and valenz
   ENMAX  =  250.000; ENMIN  =  200.000 eV

 POTCAR:    PAW_PBE N 08Apr2002
   VRHFIN =N: s2p3

[...]

 POTCAR:    PAW_PBE O 08Apr2002
   VRHFIN =O: s2p4

   TITEL  = PAW_PBE O 08Apr2002
   POMASS =   16.000; ZVAL   =    6.000    mass and valenz
   ENMAX  =  400.000; ENMIN  =  300.000 eV

 Optimization of the real space projectors (new method)

 maximal supplied QI-value         = 25.13
 optimisation between [QCUT,QGAM] = [ 12.32, 24.88] = [ 42.47,173.37] Ry
 Optimized for a Real-space Cutoff    1.06 Angstroem

   l    n(q)    QCUT    max X(q) W(low)/X(q) W(high)/X(q)  e(spline)
   0      8    12.315   115.676    0.34E-03    0.18E-03    0.23E-06
   0      8    12.315    87.132    0.34E-03    0.18E-03    0.22E-06
   1      7    12.315     4.429    0.45E-03    0.12E-03    0.18E-06
   1      7    12.315     2.733    0.35E-03    0.97E-04    0.15E-06
 Optimization of the real space projectors (new method)

[...]

   l    n(q)    QCUT    max X(q) W(low)/X(q) W(high)/X(q)  e(spline)
   0      9    12.315    79.467    0.14E-03    0.22E-04    0.37E-06
   0      9    12.315    66.151    0.14E-03    0.23E-04    0.36E-06
   1      8    12.315    22.077    0.30E-03    0.54E-03    0.45E-06
   1      8    12.315    15.894    0.30E-03    0.55E-03    0.45E-06
 Optimization of the real space projectors (new method)

 maximal supplied QI-value         = 24.76
 optimisation between [QCUT,QGAM] = [ 12.38, 25.00] = [ 42.90,175.06] Ry
 Optimized for a Real-space Cutoff    1.13 Angstroem

   l    n(q)    QCUT    max X(q) W(low)/X(q) W(high)/X(q)  e(spline)
   0      8    12.378    20.381    0.16E-03    0.54E-05    0.27E-06
   0      8    12.378    15.268    0.17E-03    0.61E-05    0.29E-06
   1      8    12.378     5.964    0.38E-03    0.23E-03    0.28E-06
   1      8    12.378     5.382    0.33E-03    0.20E-03    0.25E-06
  PAW_PBE C 08Apr2002                   :
  PAW_PBE Co 02Aug2007                  :
  PAW_PBE H 15Jun2001                   :
  PAW_PBE N 08Apr2002                   :
  PAW_PBE O 08Apr2002                   :

 POSCAR:  Co_F
  positions in direct lattice
  velocities in cartesian coordinates
 exchange correlation table for  LEXCH =        8
   RHO(1)=    0.500       N(1)  =     2000
   RHO(2)=  100.500       N(2)  =     4000

 ion  position               nearest neighbor table
   1  0.887  0.951  0.079- 107 1.08 117 1.34  65 1.39
   2  0.739  0.945  0.358- 112 1.09 118 1.36  65 1.40
   3  0.903  0.794  0.821- 116 1.08 119 1.34  66 1.39
   4  0.614  0.451  0.575- 110 1.08 120 1.34  67 1.39
   5  0.747  0.298  0.038- 111 1.09 121 1.36  68 1.40
   6  0.264  0.801  0.045- 115 1.09 122 1.36  69 1.40
   7  0.761  0.445  0.856- 101 1.09 123 1.36  67 1.40
   8  0.597  0.294  0.318- 113 1.08 124 1.34  68 1.39
   9  0.252  0.448  0.359- 114 1.09 125 1.36  70 1.40
  10  0.116  0.795  0.324- 104 1.08 126 1.34  69 1.39
  11  0.249  0.948  0.862- 105 1.09 127 1.36  71 1.40
  12  0.237  0.301  0.541- 102 1.09 128 1.36  72 1.40
  13  0.754  0.798  0.541- 108 1.09 129 1.36  66 1.40
  14  0.099  0.953  0.582- 109 1.08 130 1.34  71 1.39
  15  0.385  0.295  0.821- 106 1.08 131 1.34  72 1.39
  16  0.401  0.452  0.078- 103 1.08 132 1.34  70 1.39
  17  0.672  0.026  0.055- 141 1.23 133 1.41  33 1.48
  18  0.813  0.044  0.399- 142 1.23 133 1.41  34 1.48
  19  0.841  0.700  0.501- 143 1.23 134 1.41  35 1.48
  20  0.688  0.544  0.898- 144 1.23 135 1.41  36 1.48
  21  0.660  0.200  0.999- 145 1.23 136 1.41  37 1.48
  22  0.330  0.720  0.347- 146 1.23 137 1.41  38 1.48
  23  0.829  0.526  0.553- 147 1.23 135 1.41  39 1.48
  24  0.801  0.218  0.343- 148 1.23 136 1.41  40 1.48
  25  0.197  0.529  0.055- 149 1.23 138 1.41  41 1.48
  26  0.190  0.702  0.002- 150 1.23 137 1.41  42 1.48
  27  0.162  0.046  0.901- 151 1.23 139 1.41  43 1.48
  28  0.311  0.202  0.500- 152 1.23 140 1.41  44 1.48
  29  0.699  0.718  0.845- 153 1.23 134 1.41  45 1.48
  30  0.303  0.029  0.557- 154 1.23 139 1.41  46 1.48
  31  0.171  0.220  0.845- 155 1.23 140 1.41  47 1.48
  32  0.339  0.546  0.399- 156 1.23 138 1.41  48 1.48
  33  0.674  0.070  0.042-  49 1.38  73 1.41  17 1.48
  34  0.803  0.088  0.385-  50 1.39  73 1.41  18 1.48
  35  0.832  0.655  0.515-  51 1.39  74 1.41  19 1.48
  36  0.698  0.588  0.884-  52 1.39  75 1.41  20 1.48
  37  0.669  0.155  0.013-  53 1.39  76 1.41  21 1.48
  38  0.328  0.676  0.359-  54 1.38  77 1.41  22 1.48
  39  0.827  0.571  0.541-  55 1.38  75 1.41  23 1.48
  40  0.798  0.173  0.357-  56 1.38  76 1.41  24 1.48
  41  0.202  0.573  0.042-  57 1.38  78 1.41  25 1.48
  42  0.198  0.658  0.016-  58 1.39  77 1.41  26 1.48
  43  0.169  0.091  0.886-  59 1.39  79 1.41  27 1.48
  44  0.303  0.158  0.515-  60 1.39  80 1.41  28 1.48
  45  0.703  0.673  0.858-  61 1.38  74 1.41  29 1.48
  46  0.299  0.073  0.543-  62 1.38  79 1.41  30 1.48
  47  0.173  0.176  0.858-  63 1.38  80 1.41  31 1.48
  48  0.331  0.591  0.386-  64 1.39  78 1.41  32 1.48
  49  0.612  0.083  0.867-  88 1.09  33 1.38  53 1.40
  50  0.864  0.119  0.545-  99 1.09  34 1.39  56 1.40
  51  0.893  0.625  0.354-  93 1.09  35 1.39  55 1.40
  52  0.637  0.618  0.045-  90 1.09  36 1.39  61 1.40
  53  0.608  0.125  0.853-  98 1.09  37 1.39  49 1.40
  54  0.389  0.663  0.534-  96 1.09  38 1.38  64 1.40
  55  0.889  0.583  0.366-  86 1.09  39 1.38  51 1.40
  56  0.859  0.161  0.532-  87 1.09  40 1.38  50 1.40
  57  0.141  0.586  0.868-  95 1.09  41 1.38  58 1.40
  58  0.137  0.628  0.855-  91 1.09  42 1.39  57 1.40
  59  0.108  0.121  0.046-  92 1.09  43 1.39  63 1.40
  60  0.364  0.128  0.355-  85 1.09  44 1.39  62 1.40
[...]
 142  0.880  0.033  0.547-  18 1.23
 143  0.908  0.712  0.355-  19 1.23
 144  0.621  0.532  0.045-  20 1.23
 145  0.592  0.211  0.852-  21 1.23
 146  0.389  0.747  0.485-  22 1.23
 147  0.887  0.499  0.415-  23 1.23
 148  0.861  0.244  0.481-  24 1.23
 149  0.138  0.502  0.917-  25 1.23
 150  0.123  0.714  0.855-  26 1.23
 151  0.094  0.035  0.048-  27 1.23
 152  0.378  0.214  0.353-  28 1.23
 153  0.639  0.744  0.983-  29 1.23
 154  0.364  0.002  0.420-  30 1.23
 155  0.112  0.247  0.982-  31 1.23
 156  0.406  0.534  0.546-  32 1.23

IMPORTANT INFORMATION: All symmetrisations will be switched off!
NOSYMM: (Re-)initialisation of all symmetry stuff for point group C_1.

Automatic generation of k-mesh.
 generate k-points for:    3    1    4
Space group operators:
 irot       det(A)        alpha          n_x          n_y          n_z        tau_x        tau_y        tau_z
    1     1.000000     0.000000     1.000000     0.000000     0.000000     0.000000     0.000000     0.000000

 Subroutine IBZKPT returns following result:

 Found      7 irreducible k-points:

 Following reciprocal coordinates:
            Coordinates               Weight
  0.000000  0.000000  0.000000      1.000000
  0.333333  0.000000 -0.000000      2.000000
  0.000000  0.000000  0.250000      2.000000
  0.333333 -0.000000  0.250000      2.000000
 -0.333333  0.000000  0.250000      2.000000
  0.000000  0.000000  0.500000      1.000000
  0.333333  0.000000  0.500000      2.000000

 Following cartesian coordinates:
            Coordinates               Weight
  0.000000  0.000000  0.000000      1.000000
  0.041533  0.000000  0.000001      2.000000
  0.000003  0.003478  0.038535      2.000000
  0.041536  0.003479  0.038535      2.000000
 -0.041530  0.003478  0.038534      2.000000
  0.000006  0.006957  0.077069      1.000000
  0.041539  0.006957  0.077070      2.000000

 SYSTEM =  flex_MOF
 POSCAR =   Co_F

 Startparameter for this run:
   NWRITE =      2    write-flag & timer
   PREC   = normal    normal or accurate (medium, high low for compatibility)
   ISTART =      0    job   : 0-new  1-cont  2-samecut
   ICHARG =      2    charge: 1-file 2-atom 10-const
   ISPIN  =      2    spin polarized calculation?
   LNONCOLLINEAR =      F non collinear calculations
   LSORBIT =      F    spin-orbit coupling
   INIWAV =      1    electr: 0-lowe 1-rand  2-diag
   LASPH  =      F    aspherical Exc in radial PAW
   METAGGA=      F    non-selfconsistent MetaGGA calc.

 Electronic Relaxation 1
   ENCUT  =  600.0 eV  44.10 Ry    6.64 a.u.  16.03 65.48 13.15*2*pi/ulx,y,z
   ENINI  =  600.0     initial cutoff
   ENAUG  =  644.9 eV  augmentation charge cutoff
   NELM   =    100;   NELMIN=  8; NELMDL= -5     # of ELM steps
   EDIFF  = 0.1E-05   stopping-criterion for ELM
   LREAL  =      T    real-space projection
   NLSPLINE    = F    spline interpolate recip. space projectors
   LCOMPAT=      F    compatible to vasp.4.4
   GGA_COMPAT  = T    GGA compatible to vasp.4.4-vasp.4.6
   LMAXPAW     = -100 max onsite density
   LMAXMIX     =    2 max onsite mixed and CHGCAR
   VOSKOWN=      0    Vosko Wilk Nusair interpolation
   ROPT   =   -0.00050  -0.00050  -0.00050  -0.00050
   ROPT   =   -0.00050
 Ionic relaxation
   EDIFFG = -.1E-01   stopping-criterion for IOM
   NSW    =    500    number of steps for IOM
   NBLOCK =      1;   KBLOCK =    500    inner block; outer block
   IBRION =      2    ionic relax: 0-MD 1-quasi-New 2-CG
   NFREE  =      1    steps in history (QN), initial steepest desc. (CG)
   ISIF   =      4    stress and relaxation
   IWAVPR =     11    prediction:  0-non 1-charg 2-wave 3-comb
   ISYM   =      0    0-nonsym 1-usesym 2-fastsym
   LCORR  =      T    Harris-Foulkes like correction to forces

   POTIM  = 0.5000    time-step for ionic-motion
   TEIN   =    0.0    initial temperature
   TEBEG  =    0.0;   TEEND  =   0.0 temperature during run
   SMASS  =  -3.00    Nose mass-parameter (am)
   estimated Nose-frequenzy (Omega)   =  0.10E-29 period in steps =****** mass=  -0.147E-26a.u.
   SCALEE = 1.0000    scale energy and forces
   NPACO  =    256;   APACO  = 16.0  distance and # of slots for P.C.
   PSTRESS=    0.0 pullay stress

  Mass of Ions in am
   POMASS =  12.01 58.93  1.00 14.00 16.00
  Ionic Valenz
   ZVAL   =   4.00  9.00  1.00  5.00  6.00
  Atomic Wigner-Seitz radii
  virtual crystal weights
   VCA    =   1.00  1.00  1.00  1.00  1.00
   NELECT =     604.0000    total number of electrons
   NUPDOWN=      -1.0000    fix difference up-down

 DOS related values:
   EMIN   =  10.00;   EMAX   =-10.00  energy-range for DOS
   EFERMI =   0.00
   ISMEAR =     0;   SIGMA  =   0.05  broadening in eV -4-tet -1-fermi 0-gaus

 Electronic relaxation 2 (details)
   IALGO  =     38    algorithm
[...]
  110        set_charge                            0.501911                            1   3
  111          soft_charge                           0.456345                          1   4
  112            fftwav_mpi                            0.320037                       70   5
  113              fft3d_mpi                             0.290263                     70   6
  114                fftbas_plan_mpi                       0.290030                   70   7
  115                  dfftw_execute                         0.132647                210   8
  116                  map_forward                           0.120442                140   8
  117                    map_gather                            0.033453               70   9
  118                    m_alltoallv_z                         0.028594               70   9
  119                    map_scatter                           0.035711               70   9
  120            pw_charge                             0.035733                       70   5
  121            fft3d_mpi                             0.028797                        2   5
  122              fftbas_plan_mpi                       0.028183                      2   6
  123                dfftw_execute                         0.001926                    6   7
  124                map_backward                          0.025157                    4   7
  125                  map_gather                            0.000793                  4   8
  126                  m_alltoallv_z                         0.024272                  4   8
  127                  map_scatter                           0.000047                  4   8
  128          depsum                                0.002633                          1   4
  129          fft3d_mpi                             0.007795                          2   4
  130            fftbas_plan_mpi                       0.007618                        2   5
  131              dfftw_execute                         0.000996                      6   6
  132              map_backward                          0.004955                      4   6
  133                map_gather                            0.000260                    2   7
  134                m_alltoallv_z                         0.004584                    2   7
  135                map_scatter                           0.000077                    2   7
  136        forloc                                0.038666                            1   3
  137        fornlr                                2.018753                            1   3
  138          rspher_all                            0.085159                          3   4
  139          phaser                                0.276597                         21   4
  140          rpro_isp                              1.567456                         21   4
  141            fftwav_mpi                            1.134282                      252   5
  142              fft3d_mpi                             1.015889                    252   6
  143                fftbas_plan_mpi                       1.015038                  252   7
  144                  dfftw_execute                         0.465605                756   8
  145                  map_forward                           0.413489                504   8
  146                    map_gather                            0.105443              252   9
  147                    m_alltoallv_z                         0.101524              252   9
  148                    map_scatter                           0.126963              252   9
  149            rpromu                                0.429899                       84   5
  150              crrexp_mul_wave                       0.203137                  39312   6
  151              rpromu_gemm                           0.147645                  13104   6
  152        fordep                                0.188856                            1   3
  153          setdij_                               0.188332                          6   4
  154        setdij_                               0.628192                           20   3
  155        set_dd_paw                            0.019225                            1   3
  156        strkin                                0.008298                            1   3
  157        strelo                                0.002524                            1   3
  158        strnlr                                6.017275                            1   3
  159          rspher_all                            0.254152                          9   4
  160          phaser                                0.831292                         63   4
  161          rpro_isp                              4.656838                         63   4
  162            fftwav_mpi                            3.354783                      756   5
  163              fft3d_mpi                             3.023580                    756   6
  164                fftbas_plan_mpi                       3.020889                  756   7
  165                  dfftw_execute                         1.384416               2268   8
  166                  map_forward                           1.228061               1512   8
  167                    map_gather                            0.311464              756   9
  168                    m_alltoallv_z                         0.298549              756   9
  169                    map_scatter                           0.380429              756   9
  170            rpromu                                1.288512                      252   5
  171              crrexp_mul_wave                       0.611733                 117936   6
  172              rpromu_gemm                           0.446823                  39312   6
  173        fft3d_mpi                             0.076897                           22   3
  174          fftbas_plan_mpi                       0.074640                         22   4
  175            dfftw_execute                         0.011608                       66   5
  176            map_forward                           0.023178                       20   5
  177              map_gather                            0.000327                     10   6
  178              m_alltoallv_z                         0.020776                     10   6
  179              map_scatter                           0.001915                     10   6
  180            map_backward                          0.023207                       24   5
  181              map_gather                            0.001849                     12   6
  182              m_alltoallv_z                         0.020700                     12   6
  183              map_scatter                           0.000470                     12   6
  184        forhar                                0.068502                            2   3
  185        strehar                               0.002175                            1   3
  186        chggra                                0.014206                            1   3
  187          fft3d_mpi                             0.011583                          3   4
  188            fftbas_plan_mpi                       0.011304                        3   5
  189              dfftw_execute                         0.001748                      9   6
  190              map_forward                           0.005635                      4   6
  191                map_gather                            0.000055                    2   7
  192                m_alltoallv_z                         0.005184                    2   7
  193                map_scatter                           0.000362                    2   7
  194              map_backward                          0.001727                      2   6
  195                map_gather                            0.000154                    1   7
  196                m_alltoallv_z                         0.001519                    1   7
  197                map_scatter                           0.000038                    1   7
  198        brmix                                 0.012596                            1   3
  199          brpre                                 0.000093                          2   4
  200          setg0                                 0.000684                          1   4
  201          broyd                                 0.010184                          1   4
  202            brget                                 0.000846                      224   5
  203            brsav                                 0.000190                       48   5

 Flat profile

 eddav                                1255.989206          58
 total_time                            304.319423           1
 redis_pw                              133.890385       50447
 dfftw_execute                         101.150759      166029
 orth1                                  75.999716       53751
 m_alltoallv_z                          44.451375       55561
 redis_proj                             35.620764       63478
 fftbas_plan_mpi                        31.170540       55345
 map_scatter                            29.335340       55561
 map_gather                             26.437189       55561
 crrexp_mul_work_add                    23.809984     2790684
 racc0                                  23.435192       17889
 fftwav_mpi                             22.079590       35778
 rpro1                                  15.749265       13017
 map_forward                            14.511127       73130
 vhamil                                 12.892090       17889
 phaser                                 11.907724         903
 crrexp_mul_wave                        11.692191     2201004
 lincom                                  9.627070         826
 force_and_stress                        8.523126           1
 w1_copy                                 3.678108       53667
 fftext_mpi                              2.937872       17889
 eccp                                    2.624586        4872
 setdij_                                 2.589275          82
 set_charge                              1.882081          54
 kinhamil                                1.807922       17889
 pw_charge                               1.775903        3780
 soft_charge                             1.530882          54
 set_dd_paw                              1.083366          56
 apply_precond                           1.033881       13017
 overl                                   1.015146       30920
 overl1                                  0.778895       17889
 rpromu_gemm                             0.670185       56784
 setup_precond                           0.608703        4872
 fft3d_mpi                               0.425870       55343
 rspher_all                              0.392723          14
 map_backward                            0.367040       37556
 rpromu                                  0.339455         364
 broyd                                   0.301071          54
 choleski                                0.288774          14
 strnlr                                  0.274993           1
 hamiltmu                                0.267667       17889
 orthch                                  0.222036           1
 depsum                                  0.140159          54
 raccmu_                                 0.126206       17889
 brmix                                   0.104192          54
 fornlr                                  0.089541           1
 w1_projall                              0.086283       13017
 forhar                                  0.068502           2
 forloc                                  0.038666           1
 setg0                                   0.032029          56
 brget                                   0.026635        7544
 rpro_isp                                0.018055          91
 truncate_high_frequency_w1              0.015034       22761
 brgrid                                  0.009366           1
 strkin                                  0.008298           1
 brsav                                   0.007462        1880
 brpre                                   0.006121         108
 chggra                                  0.002623           1
 strelo                                  0.002524           1
 strehar                                 0.002175           1
 fordep                                  0.000524           1
 redis_pw_over_bands                     0.000000           1
  summed up times    2220.27288508415

 Accumulative profile

 total_time                           2220.272885           1
 eddav                                1862.187364          58
 fft3d_mpi                             247.785999       55343
 fftbas_plan_mpi                       247.423371       55345
 fftwav_mpi                            193.256914       35778
 hamiltmu                              135.991493       17889
 redis_pw                              133.890385       50447
 dfftw_execute                         101.150759      166029
 map_forward                            86.306350       73130
 orth1                                  75.999716       53751
 kinhamil                               74.681459       17889
 fftext_mpi                             72.873537       17889
 raccmu_                                48.150277       17889
 racc0                                  47.245176       17889
 m_alltoallv_z                          44.451375       55561
 redis_proj                             35.620764       63478
 map_scatter                            29.335340       55561
 map_backward                           28.795722       37556
 w1_projall                             26.645475       13017
 rpro1                                  26.559192       13017
 map_gather                             26.437189       55561
 set_charge                             24.992442          54
 crrexp_mul_work_add                    23.809984     2790684
 soft_charge                            22.518075          54
 force_and_stress                       18.121203           1
 vhamil                                 12.892090       17889
 phaser                                 11.907724         903
 crrexp_mul_wave                        11.692191     2201004
 lincom                                  9.627070         826
 rpro_isp                                6.813059          91
 strnlr                                  6.017275           1
 w1_copy                                 3.678108       53667
 eccp                                    2.624586        4872
 setdij_                                 2.589275          82
 fornlr                                  2.018753           1
 rpromu                                  1.891904         364
 pw_charge                               1.775903        3780
 orthch                                  1.299139           1
 set_dd_paw                              1.083366          56
 apply_precond                           1.033881       13017
 overl                                   1.015146       30920
 overl1                                  0.778895       17889
 rpromu_gemm                             0.670185       56784
 setup_precond                           0.608703        4872
 brmix                                   0.477509          54
 rspher_all                              0.392723          14
 broyd                                   0.335168          54
 choleski                                0.288774          14
 fordep                                  0.188856           1
 depsum                                  0.140159          54
 forhar                                  0.068502           2
 forloc                                  0.038666           1
 setg0                                   0.032029          56
 brget                                   0.026635        7544
 truncate_high_frequency_w1              0.015034       22761
 chggra                                  0.014206           1
 brgrid                                  0.009366           1
 strkin                                  0.008298           1
 brsav                                   0.007462        1880
 brpre                                   0.006121         108
 strelo                                  0.002524           1
 strehar                                 0.002175           1
 redis_pw_over_bands                     0.000000           1

Profiling took   3.530100  2.002965  0.012650  0.012262 seconds
Profiling took   4.024698 seconds