 vasp.6.0.8 29Jun18 (build Mar 14 2019 11:44:20) complex

 executed on             LinuxIFC date 2020.09.30  18:12:34

 INCAR:
 POTCAR:    PAW_PBE C 08Apr2002
 POTCAR:    PAW_PBE Fe 06Sep2000
 POTCAR:    PAW_PBE H 15Jun2001
 POTCAR:    PAW_PBE N 08Apr2002
 POTCAR:    PAW_PBE O 08Apr2002
 POTCAR:    PAW_PBE C 08Apr2002
   VRHFIN =C: s2p2

   TITEL  = PAW_PBE C 08Apr2002
   POMASS =   12.011; ZVAL   =    4.000    mass and valenz
   ENMAX  =  400.000; ENMIN  =  300.000 eV

 POTCAR:    PAW_PBE Fe 06Sep2000
   VRHFIN =Fe:  d7 s1

   TITEL  = PAW_PBE Fe 06Sep2000
   POMASS =   55.847; ZVAL   =    8.000    mass and valenz
   ENMAX  =  267.882; ENMIN  =  200.911 eV

 POTCAR:    PAW_PBE H 15Jun2001
   VRHFIN =H: ultrasoft test

   TITEL  = PAW_PBE H 15Jun2001
   POMASS =    1.000; ZVAL   =    1.000    mass and valenz
   ENMAX  =  250.000; ENMIN  =  200.000 eV

 POTCAR:    PAW_PBE N 08Apr2002
   VRHFIN =N: s2p3

[...]

 POTCAR:    PAW_PBE O 08Apr2002
   VRHFIN =O: s2p4

   TITEL  = PAW_PBE O 08Apr2002
   POMASS =   16.000; ZVAL   =    6.000    mass and valenz
   ENMAX  =  400.000; ENMIN  =  300.000 eV

 Optimization of the real space projectors (new method)

 maximal supplied QI-value         = 25.13
 optimisation between [QCUT,QGAM] = [ 12.32, 24.88] = [ 42.47,173.37] Ry
 Optimized for a Real-space Cutoff    1.06 Angstroem

   l    n(q)    QCUT    max X(q) W(low)/X(q) W(high)/X(q)  e(spline)
   0      8    12.315   115.676    0.34E-03    0.18E-03    0.23E-06
   0      8    12.315    87.132    0.34E-03    0.18E-03    0.22E-06
   1      7    12.315     4.429    0.45E-03    0.12E-03    0.18E-06
   1      7    12.315     2.733    0.35E-03    0.97E-04    0.15E-06
 Optimization of the real space projectors (new method)

[...]

   l    n(q)    QCUT    max X(q) W(low)/X(q) W(high)/X(q)  e(spline)
   0      9    12.315    79.467    0.14E-03    0.22E-04    0.37E-06
   0      9    12.315    66.151    0.14E-03    0.23E-04    0.36E-06
   1      8    12.315    22.077    0.30E-03    0.54E-03    0.45E-06
   1      8    12.315    15.894    0.30E-03    0.55E-03    0.45E-06
 Optimization of the real space projectors (new method)

 maximal supplied QI-value         = 24.76
 optimisation between [QCUT,QGAM] = [ 12.38, 25.00] = [ 42.90,175.06] Ry
 Optimized for a Real-space Cutoff    1.13 Angstroem

   l    n(q)    QCUT    max X(q) W(low)/X(q) W(high)/X(q)  e(spline)
   0      8    12.378    20.381    0.16E-03    0.54E-05    0.27E-06
   0      8    12.378    15.268    0.17E-03    0.61E-05    0.29E-06
   1      8    12.378     5.964    0.38E-03    0.23E-03    0.28E-06
   1      8    12.378     5.382    0.33E-03    0.20E-03    0.25E-06
  PAW_PBE C 08Apr2002                   :
  PAW_PBE Fe 06Sep2000                  :
  PAW_PBE H 15Jun2001                   :
  PAW_PBE N 08Apr2002                   :
  PAW_PBE O 08Apr2002                   :

 POSCAR:  C Fe  H  N  O
  positions in direct lattice
  velocities in cartesian coordinates
 exchange correlation table for  LEXCH =        8
   RHO(1)=    0.500       N(1)  =     2000
   RHO(2)=  100.500       N(2)  =     4000

 ion  position               nearest neighbor table
   1  0.763  0.951  0.995- 107 1.09 117 1.36  65 1.40
   2  0.892  0.954  0.313- 112 1.08 118 1.34  65 1.39
   3  0.750  0.800  0.843- 116 1.09 119 1.36  66 1.40
   4  0.736  0.451  0.493- 110 1.09 120 1.36  67 1.40
   5  0.621  0.295  0.024- 111 1.08 121 1.34  68 1.39
   6  0.108  0.793  0.030- 115 1.08 122 1.34  69 1.39
   7  0.607  0.454  0.812- 101 1.08 123 1.34  67 1.39
   8  0.749  0.300  0.342- 113 1.09 124 1.36  68 1.40
   9  0.377  0.453  0.314- 114 1.08 125 1.34  70 1.39
  10  0.237  0.797  0.348- 104 1.09 126 1.36  69 1.40
  11  0.122  0.953  0.817- 105 1.08 127 1.34  71 1.39
  12  0.391  0.293  0.527- 102 1.08 128 1.34  72 1.39
  13  0.878  0.795  0.526- 108 1.08 129 1.34  66 1.39
  14  0.249  0.948  0.499- 109 1.09 130 1.36  71 1.40
  15  0.263  0.297  0.846- 106 1.09 131 1.36  72 1.40
  16  0.250  0.448  0.997- 103 1.09 132 1.36  70 1.40
  17  0.699  0.030  0.325- 141 1.23 133 1.41  33 1.47
  18  0.846  0.048  0.958- 142 1.23 133 1.41  34 1.47
  19  0.823  0.702  0.880- 143 1.23 134 1.41  35 1.47
  20  0.653  0.548  0.458- 144 1.23 135 1.41  36 1.47
  21  0.676  0.202  0.379- 145 1.23 136 1.41  37 1.47
  22  0.301  0.718  0.018- 146 1.23 137 1.41  38 1.47
  23  0.800  0.530  0.824- 147 1.23 135 1.41  39 1.47
  24  0.823  0.220  0.013- 148 1.23 136 1.41  40 1.47
  25  0.175  0.528  0.326- 149 1.23 138 1.41  41 1.47
  26  0.153  0.700  0.384- 150 1.23 137 1.42  42 1.47
  27  0.177  0.046  0.461- 151 1.23 139 1.41  43 1.47
  28  0.346  0.200  0.882- 152 1.23 140 1.41  44 1.47
  29  0.676  0.720  0.513- 153 1.23 134 1.41  45 1.47
  30  0.324  0.027  0.828- 154 1.23 139 1.41  46 1.47
  31  0.199  0.218  0.516- 155 1.23 140 1.41  47 1.47
  32  0.323  0.546  0.960- 156 1.23 138 1.41  48 1.47
  33  0.698  0.074  0.337-  49 1.39  73 1.41  17 1.47
  34  0.836  0.092  0.973-  50 1.39  73 1.41  18 1.47
  35  0.812  0.658  0.865-  51 1.39  74 1.41  19 1.47
  36  0.663  0.592  0.473-  52 1.39  75 1.41  20 1.47
  37  0.687  0.158  0.365-  53 1.39  76 1.41  21 1.47
  38  0.302  0.674  0.005-  54 1.39  77 1.41  22 1.47
  39  0.801  0.574  0.837-  55 1.39  75 1.41  23 1.47
  40  0.825  0.176  0.001-  56 1.39  76 1.41  24 1.47
  41  0.173  0.572  0.339-  57 1.39  78 1.41  25 1.47
  42  0.163  0.656  0.368-  58 1.39  77 1.41  26 1.47
  43  0.187  0.089  0.476-  59 1.39  79 1.41  27 1.47
  44  0.336  0.156  0.868-  60 1.39  80 1.41  28 1.47
  45  0.674  0.676  0.501-  61 1.39  74 1.41  29 1.47
  46  0.326  0.072  0.840-  62 1.39  79 1.41  30 1.47
  47  0.198  0.174  0.504-  63 1.39  80 1.41  31 1.47
  48  0.312  0.590  0.976-  64 1.39  78 1.41  32 1.47
  49  0.629  0.087  0.522-  88 1.09  33 1.39  53 1.40
  50  0.901  0.122  0.804-  99 1.09  34 1.39  56 1.40
  51  0.876  0.628  0.035-  93 1.09  35 1.39  55 1.40
  52  0.598  0.622  0.303-  90 1.09  36 1.39  61 1.40
  53  0.623  0.128  0.535-  98 1.09  37 1.39  49 1.40
  54  0.371  0.661  0.820-  96 1.09  38 1.39  64 1.40
  55  0.870  0.587  0.022-  86 1.09  39 1.39  51 1.40
  56  0.895  0.164  0.817-  87 1.09  40 1.39  50 1.40
  57  0.104  0.584  0.523-  95 1.09  41 1.39  58 1.40
  58  0.098  0.626  0.537-  91 1.09  42 1.39  57 1.40
  59  0.123  0.119  0.306-  92 1.09  43 1.39  63 1.40
  60  0.401  0.126  0.038-  85 1.09  44 1.39  62 1.40
[...]
 142  0.915  0.036  0.805-  18 1.23
 143  0.893  0.714  0.034-  19 1.23
 144  0.583  0.536  0.305-  20 1.23
 145  0.606  0.214  0.533-  21 1.23
 146  0.360  0.744  0.871-  22 1.23
 147  0.859  0.503  0.972-  23 1.23
 148  0.881  0.247  0.865-  24 1.23
 149  0.117  0.501  0.473-  25 1.23
 150  0.083  0.712  0.537-  26 1.23
 151  0.107  0.034  0.308-  27 1.23
 152  0.416  0.212  0.036-  28 1.23
 153  0.619  0.747  0.366-  29 1.23
 154  0.383  0.001  0.975-  30 1.23
 155  0.140  0.244  0.369-  31 1.23
 156  0.393  0.534  0.807-  32 1.23

IMPORTANT INFORMATION: All symmetrisations will be switched off!
NOSYMM: (Re-)initialisation of all symmetry stuff for point group C_1.

                                     Primitive cell

  volume of cell :    1701.1301

  direct lattice vectors                    reciprocal lattice vectors
     8.799792013  0.000516305 -0.003067910     0.113639060 -0.000018039  0.000027909
     0.004522296 32.903928989  2.854029665    -0.000002998  0.030689528 -0.003435860
    -0.001351607  0.664202506  5.932740843     0.000060207 -0.014763645  0.170209041

  length of vectors
     8.799792563 33.027474149  5.969805751     0.113639065  0.030881261  0.170848139

  position of ions in fractional coordinates (direct lattice)
     0.763310054  0.951014694  0.994567967
     0.891564498  0.954412727  0.313393430
     0.750457282  0.799515546  0.843056391
     0.735643364  0.451080699  0.493092375
     0.621390637  0.294876042  0.023912208
     0.108228612  0.793329796  0.029808612
     0.607367366  0.454432151  0.811746665
     0.748559800  0.299637863  0.341629658
     0.376699979  0.453006567  0.314491045
     0.236788576  0.796775047  0.348278658
     0.122165283  0.952942076  0.816837513
     0.390955168  0.293395096  0.527423447
     0.878093886  0.794800694  0.525857193
     0.249344079  0.948209158  0.499247930
     0.262563212  0.296848751  0.845827658
     0.249578295  0.448357701  0.996559149
     0.698880600  0.030208418  0.324882460
     0.846020020  0.048105492  0.958455834
     0.823318520  0.702105829  0.879996816
     0.652626530  0.548160057  0.458034702
     0.676288231  0.202234408  0.379453640
     0.301135663  0.717651605  0.017939339
     0.799992179  0.530139213  0.824415860
     0.823147544  0.220357211  0.012917161
     0.175154201  0.527518797  0.326063703
     0.153305997  0.699634469  0.383662799
     0.176662513  0.045591434  0.461376673
     0.345865656  0.199746805  0.882486638
     0.676456791  0.720359038  0.513255195
     0.323966307  0.027489666  0.827842840
     0.198542720  0.217601987  0.515976252
     0.322693532  0.545770074  0.960214751
     0.697959206  0.074299024  0.337185287
     0.835954054  0.092042409  0.973082509
     0.812026489  0.658226362  0.865257874
     0.663048336  0.592088463  0.472721681
     0.687351862  0.158339232  0.364962976
     0.301750153  0.673599830  0.004843915
     0.800983131  0.574214459  0.837072129
     0.825382072  0.176196453  0.001018527
     0.173481087  0.571631537  0.339065380
     0.163339790  0.655725762  0.368486099
     0.187416133  0.089479260  0.476043075
     0.335871076  0.155796862  0.868060632
     0.674118891  0.676213850  0.501017567
     0.325648436  0.071634444  0.840080536
     0.197688763  0.173507356  0.503901466
     0.311848325  0.589630272  0.975501098
     0.628855940  0.086680219  0.521639382
     0.900884946  0.121989801  0.803615674
     0.876192008  0.628260003  0.035349878
     0.598380183  0.622088442  0.303113716
     0.622996182  0.128424192  0.535035273
     0.370824352  0.661306008  0.820100632
     0.870051465  0.586523815  0.021853000
     0.894920042  0.163755146  0.816930756
     0.103941397  0.583987572  0.523391169
     0.098213810  0.625721537  0.537444174
     0.122938348  0.119387046  0.305936765
     0.400885384  0.125855166  0.037654539
[...]
     0.915421270  0.035942656  0.805179765
     0.893366866  0.714026827  0.033565804
     0.582715204  0.536044772  0.304978489
     0.606442871  0.214212376  0.532947319
     0.360171209  0.744454655  0.871254423
     0.858697146  0.503330586  0.971586020
     0.880920841  0.247235796  0.865411242
     0.116741582  0.500610457  0.472734530
     0.083428304  0.711766792  0.536608443
     0.107022742  0.033623925  0.307571842
     0.415506304  0.211950872  0.035514357
     0.618840110  0.747285935  0.365709751
     0.382532447  0.000637580  0.974823997
     0.139821788  0.244354184  0.368504934
     0.392706846  0.533862734  0.806649750

  ion indices of the primitive-cell ions
   primitive index   ion index
                 1           1
                 2           2
                 3           3
                 4           4
                 5           5
                 6           6
                 7           7
                 8           8
[...]

  length of vectors
     8.799792563 33.027474149  5.969805751     0.113639065  0.030881261  0.170848139

 FORCES acting on ions
    electron-ion (+dipol)            ewald-force                    non-local-force                 convergence-correction
   0.215E+03 0.824E+02 0.112E+03   -.219E+03 -.786E+02 -.116E+03   0.326E+01 -.383E+01 0.347E+01   -.109E-02 0.506E-02 -.592E-03
   0.233E+02 0.106E+02 -.133E+03   -.228E+02 -.545E+01 0.136E+03   -.603E+00 -.523E+01 -.292E+01   -.401E-03 0.466E-02 -.511E-03
   0.221E+03 -.891E+02 -.111E+03   -.225E+03 0.854E+02 0.115E+03   0.337E+01 0.371E+01 -.343E+01   -.117E-02 0.797E-02 -.497E-03
   -.215E+03 0.827E+02 0.112E+03   0.219E+03 -.789E+02 -.116E+03   -.327E+01 -.383E+01 0.347E+01   0.664E-02 0.138E-01 -.115E-03
   -.302E+02 -.106E+02 0.134E+03   0.298E+02 0.540E+01 -.137E+03   0.417E+00 0.524E+01 0.289E+01   0.616E-02 -.295E-01 0.400E-02
   -.231E+02 -.110E+02 0.133E+03   0.225E+02 0.579E+01 -.136E+03   0.601E+00 0.523E+01 0.292E+01   0.553E-03 0.737E-02 -.103E-02
   -.233E+02 0.112E+02 -.133E+03   0.228E+02 -.604E+01 0.136E+03   0.600E+00 -.523E+01 -.292E+01   0.544E-02 0.171E-01 -.256E-02
   -.221E+03 -.885E+02 -.112E+03   0.225E+03 0.848E+02 0.115E+03   -.335E+01 0.370E+01 -.344E+01   0.690E-02 -.261E-01 0.138E-02
   0.301E+02 0.111E+02 -.134E+03   -.298E+02 -.591E+01 0.137E+03   -.414E+00 -.523E+01 -.289E+01   -.589E-02 0.167E-01 -.279E-02
   -.216E+03 -.828E+02 -.113E+03   0.219E+03 0.790E+02 0.116E+03   -.326E+01 0.382E+01 -.347E+01   0.830E-03 0.830E-02 -.502E-03
   -.301E+02 0.103E+02 -.134E+03   0.298E+02 -.516E+01 0.137E+03   0.420E+00 -.524E+01 -.289E+01   0.974E-03 0.522E-02 -.677E-03
   0.232E+02 -.105E+02 0.133E+03   -.227E+02 0.529E+01 -.136E+03   -.609E+00 0.523E+01 0.291E+01   -.538E-02 -.299E-01 0.420E-02
   0.296E+02 -.112E+02 0.134E+03   -.292E+02 0.601E+01 -.137E+03   -.422E+00 0.524E+01 0.290E+01   -.108E-04 0.804E-02 -.118E-02
   -.221E+03 0.884E+02 0.112E+03   0.225E+03 -.847E+02 -.115E+03   -.335E+01 -.371E+01 0.343E+01   0.752E-03 0.448E-02 -.564E-03
   0.216E+03 -.822E+02 -.112E+03   -.219E+03 0.784E+02 0.116E+03   0.326E+01 0.382E+01 -.347E+01   -.664E-02 -.265E-01 0.142E-02
   0.221E+03 0.887E+02 0.112E+03   -.224E+03 -.850E+02 -.115E+03   0.335E+01 -.371E+01 0.344E+01   -.692E-02 0.130E-01 0.499E-04
   0.324E+02 0.615E+02 -.113E+02   -.325E+02 -.572E+02 0.124E+02   0.108E+00 -.439E+01 -.113E+01   -.771E-03 0.239E-02 0.107E-02
   0.371E+02 0.277E+02 -.219E+02   -.368E+02 -.231E+02 0.225E+02   -.337E+00 -.459E+01 -.557E+00   0.160E-04 0.390E-03 -.245E-03
   0.409E+02 -.313E+02 0.217E+02   -.406E+02 0.267E+02 -.223E+02   -.268E+00 0.459E+01 0.579E+00   0.718E-04 0.843E-02 -.104E-02
   -.375E+02 0.279E+02 -.218E+02   0.372E+02 -.233E+02 0.224E+02   0.332E+00 -.459E+01 -.564E+00   0.598E-03 0.133E-01 -.147E-02
   -.410E+02 -.311E+02 0.215E+02   0.408E+02 0.266E+02 -.221E+02   0.268E+00 0.459E+01 0.568E+00   0.929E-03 -.222E-01 0.276E-02
   -.324E+02 -.619E+02 0.118E+02   0.325E+02 0.575E+02 -.129E+02   -.935E-01 0.440E+01 0.115E+01   0.782E-04 0.788E-02 -.118E-02
   -.327E+02 0.619E+02 -.115E+02   0.328E+02 -.575E+02 0.126E+02   -.103E+00 -.439E+01 -.114E+01   0.113E-02 0.126E-01 -.161E-02
   -.356E+02 -.652E+02 0.102E+02   0.358E+02 0.608E+02 -.113E+02   -.188E+00 0.438E+01 0.111E+01   0.169E-02 -.231E-01 0.164E-02
   0.350E+02 0.655E+02 -.106E+02   -.352E+02 -.611E+02 0.118E+02   0.170E+00 -.438E+01 -.114E+01   -.102E-02 0.127E-01 -.155E-02
   -.376E+02 -.278E+02 0.217E+02   0.373E+02 0.232E+02 -.223E+02   0.341E+00 0.459E+01 0.567E+00   0.246E-03 0.830E-02 -.114E-02
   -.407E+02 0.313E+02 -.218E+02   0.404E+02 -.267E+02 0.224E+02   0.276E+00 -.459E+01 -.568E+00   0.124E-03 0.418E-03 -.199E-03
   0.375E+02 -.275E+02 0.216E+02   -.372E+02 0.229E+02 -.222E+02   -.336E+00 0.459E+01 0.550E+00   -.772E-03 -.220E-01 0.277E-02
   0.357E+02 -.655E+02 0.102E+02   -.359E+02 0.611E+02 -.113E+02   0.181E+00 0.438E+01 0.112E+01   -.297E-03 0.814E-02 -.121E-02
   -.348E+02 0.653E+02 -.104E+02   0.350E+02 -.609E+02 0.116E+02   -.176E+00 -.438E+01 -.113E+01   0.699E-03 0.240E-02 0.108E-02
   0.327E+02 -.615E+02 0.113E+02   -.328E+02 0.571E+02 -.124E+02   0.105E+00 0.440E+01 0.113E+01   -.165E-02 -.230E-01 0.190E-02
   0.409E+02 0.314E+02 -.217E+02   -.406E+02 -.268E+02 0.223E+02   -.279E+00 -.459E+01 -.587E+00   -.876E-03 0.136E-01 -.153E-02
   0.211E+02 0.746E+02 -.319E+02   -.212E+02 -.745E+02 0.327E+02   0.893E-01 -.128E+00 -.857E+00   -.621E-03 -.517E-02 0.107E-02
   -.293E+01 0.349E+02 0.195E+02   0.317E+01 -.346E+02 -.202E+02   -.254E+00 -.329E+00 0.674E+00   -.108E-03 -.736E-02 0.360E-03
   -.110E+01 -.381E+02 -.191E+02   0.136E+01 0.377E+02 0.197E+02   -.266E+00 0.329E+00 -.651E+00   0.218E-03 0.108E-01 -.105E-02
   0.283E+01 0.349E+02 0.195E+02   -.307E+01 -.346E+02 -.201E+02   0.257E+00 -.332E+00 0.676E+00   0.478E-04 0.122E-01 -.158E-02
   0.975E+00 -.382E+02 -.192E+02   -.123E+01 0.378E+02 0.198E+02   0.267E+00 0.326E+00 -.652E+00   0.428E-03 -.159E-01 0.252E-02
   -.211E+02 -.750E+02 0.321E+02   0.212E+02 0.748E+02 -.329E+02   -.903E-01 0.131E+00 0.851E+00   -.155E-04 0.105E-01 -.124E-02
   -.212E+02 0.750E+02 -.320E+02   0.213E+02 -.749E+02 0.328E+02   -.870E-01 -.134E+00 -.853E+00   0.537E-03 0.121E-01 -.144E-02
   -.237E+02 -.792E+02 0.315E+02   0.238E+02 0.791E+02 -.323E+02   -.990E-01 0.101E+00 0.854E+00   0.116E-02 -.176E-01 0.133E-02
   0.234E+02 0.794E+02 -.317E+02   -.235E+02 -.793E+02 0.325E+02   0.943E-01 -.103E+00 -.856E+00   -.349E-03 0.121E-01 -.141E-02
   0.275E+01 -.349E+02 -.197E+02   -.300E+01 0.345E+02 0.204E+02   0.254E+00 0.334E+00 -.673E+00   0.775E-04 0.109E-01 -.105E-02
   0.118E+01 0.382E+02 0.191E+02   -.144E+01 -.378E+02 -.197E+02   0.270E+00 -.329E+00 0.653E+00   0.184E-03 -.719E-02 0.389E-03
   -.282E+01 -.350E+02 -.196E+02   0.306E+01 0.347E+02 0.203E+02   -.256E+00 0.329E+00 -.676E+00   -.320E-03 -.156E-01 0.253E-02
   0.237E+02 -.794E+02 0.314E+02   -.238E+02 0.793E+02 -.322E+02   0.983E-01 0.103E+00 0.853E+00   -.186E-03 0.104E-01 -.118E-02
   -.233E+02 0.791E+02 -.316E+02   0.234E+02 -.790E+02 0.324E+02   -.954E-01 -.102E+00 -.853E+00   0.547E-03 -.498E-02 0.102E-02
   0.213E+02 -.745E+02 0.318E+02   -.214E+02 0.744E+02 -.327E+02   0.934E-01 0.133E+00 0.852E+00   -.123E-02 -.173E-01 0.136E-02
   -.959E+00 0.380E+02 0.193E+02   0.122E+01 -.376E+02 -.199E+02   -.268E+00 -.333E+00 0.650E+00   -.285E-03 0.124E-01 -.172E-02
   0.539E+02 0.933E+02 -.787E+02   -.548E+02 -.945E+02 0.805E+02   0.926E+00 0.123E+01 -.190E+01   0.103E-03 -.585E-02 0.451E-03
   -.495E+02 0.357E+01 0.748E+02   0.506E+02 -.420E+01 -.770E+02   -.114E+01 0.636E+00 0.222E+01   -.324E-03 -.937E-02 0.154E-02
   -.493E+02 -.651E+01 -.753E+02   0.504E+02 0.715E+01 0.775E+02   -.113E+01 -.660E+00 -.225E+01   0.742E-04 0.118E-01 -.153E-02
   0.493E+02 0.329E+01 0.747E+02   -.504E+02 -.393E+01 -.769E+02   0.114E+01 0.637E+00 0.223E+01   -.556E-04 0.118E-01 -.128E-02
   0.492E+02 -.698E+01 -.754E+02   -.503E+02 0.765E+01 0.776E+02   0.113E+01 -.660E+00 -.225E+01   0.437E-03 -.142E-01 0.135E-02
   -.539E+02 -.941E+02 0.789E+02   0.548E+02 0.953E+02 -.807E+02   -.927E+00 -.123E+01 0.190E+01   -.297E-03 0.107E-01 -.109E-02
   -.537E+02 0.939E+02 -.786E+02   0.546E+02 -.951E+02 0.805E+02   -.920E+00 0.124E+01 -.191E+01   0.436E-03 0.121E-01 -.135E-02
   -.538E+02 -.973E+02 0.778E+02   0.547E+02 0.985E+02 -.796E+02   -.924E+00 -.122E+01 0.189E+01   0.189E-03 -.173E-01 0.201E-02
   0.538E+02 0.977E+02 -.779E+02   -.547E+02 -.989E+02 0.797E+02   0.928E+00 0.123E+01 -.188E+01   -.861E-04 0.123E-01 -.122E-02
   0.493E+02 -.322E+01 -.750E+02   -.504E+02 0.383E+01 0.772E+02   0.114E+01 -.626E+00 -.222E+01   0.386E-03 0.118E-01 -.148E-02
   0.492E+02 0.697E+01 0.754E+02   -.503E+02 -.762E+01 -.776E+02   0.112E+01 0.659E+00 0.225E+01   0.217E-03 -.928E-02 0.138E-02
   -.492E+02 -.370E+01 -.748E+02   0.503E+02 0.435E+01 0.770E+02   -.114E+01 -.636E+00 -.222E+01   -.236E-03 -.138E-01 0.153E-02
[...]
   -.727E+02 -.200E+03 -.162E+03   0.993E+02 0.222E+03 0.203E+03   -.266E+02 -.215E+02 -.411E+02   0.467E-04 0.131E-01 -.165E-02
   0.758E+02 0.198E+03 0.160E+03   -.102E+03 -.220E+03 -.201E+03   0.266E+02 0.217E+02 0.410E+02   0.915E-03 0.213E-01 -.188E-02
   0.720E+02 -.200E+03 -.162E+03   -.986E+02 0.222E+03 0.203E+03   0.266E+02 -.215E+02 -.411E+02   0.235E-02 -.364E-01 0.267E-02
   -.176E+03 -.367E+03 0.191E+03   0.199E+03 0.402E+03 -.226E+03   -.229E+02 -.343E+02 0.347E+02   -.452E-04 0.123E-01 -.118E-02
   -.176E+03 0.367E+03 -.191E+03   0.199E+03 -.402E+03 0.225E+03   -.227E+02 0.343E+02 -.348E+02   0.210E-02 0.184E-01 -.262E-02
   -.173E+03 -.373E+03 0.192E+03   0.196E+03 0.407E+03 -.227E+03   -.225E+02 -.344E+02 0.350E+02   0.116E-02 -.370E-01 0.538E-02
   0.173E+03 0.374E+03 -.191E+03   -.196E+03 -.408E+03 0.226E+03   0.227E+02 0.344E+02 -.347E+02   -.181E-02 0.184E-01 -.256E-02
   0.751E+02 -.198E+03 -.160E+03   -.102E+03 0.220E+03 0.201E+03   0.266E+02 -.218E+02 -.410E+02   0.592E-03 0.130E-01 -.169E-02
   0.716E+02 0.200E+03 0.162E+03   -.981E+02 -.222E+03 -.203E+03   0.265E+02 0.215E+02 0.412E+02   0.110E-02 0.153E-02 0.752E-03
   -.749E+02 -.198E+03 -.161E+03   0.101E+03 0.220E+03 0.201E+03   -.265E+02 -.219E+02 -.410E+02   -.169E-02 -.361E-01 0.305E-02
   0.173E+03 -.374E+03 0.191E+03   -.195E+03 0.408E+03 -.226E+03   0.224E+02 -.344E+02 0.350E+02   -.457E-03 0.127E-01 -.134E-02
   -.173E+03 0.373E+03 -.191E+03   0.196E+03 -.407E+03 0.226E+03   -.228E+02 0.343E+02 -.348E+02   -.550E-03 0.559E-02 -.136E-02
   0.176E+03 -.366E+03 0.191E+03   -.199E+03 0.400E+03 -.226E+03   0.227E+02 -.342E+02 0.349E+02   -.170E-02 -.371E-01 0.521E-02
   -.720E+02 0.200E+03 0.162E+03   0.986E+02 -.222E+03 -.203E+03   -.266E+02 0.214E+02 0.411E+02   -.150E-02 0.216E-01 -.198E-02
   0.658E-01 0.871E-01 -.504E+00   -.853E-13 -.881E-12 0.512E-12   -.592E-01 -.722E-01 0.494E+00   0.669E-02 -.197E-02 0.190E-03

 POSITION                                       TOTAL-FORCE (eV/Angst)
      6.71993     31.95311      8.61240         0.001293      0.006427      0.004340
      7.84947     31.61255      4.58047        -0.003007     -0.002848     -0.000109
      6.60634     26.86755      7.28117         0.001478     -0.005342     -0.000522
      6.47488     15.17022      4.21053        -0.000602      0.007093      0.003173
      5.46941      9.71878      0.98154         0.001126      0.002353     -0.002029
      0.95594     26.12352      2.44070         0.002562     -0.005780     -0.001836
      5.34566     15.49208      6.11098         0.002049     -0.001484      0.002754
      6.58806     10.08656      2.87968         0.004127     -0.006613      0.002234
      3.31651     15.11478      3.15753        -0.002047      0.004895      0.002767
      2.08682     26.44848      4.33954         0.000501     -0.001196     -0.001807
      1.07823     31.89815      7.56544         0.004317      0.002785     -0.002028
      3.44094     10.00437      3.96523        -0.001767     -0.006255     -0.004159
      7.72993     26.50179      5.38547        -0.002557      0.002502     -0.000606
      2.19779     31.53154      5.66736        -0.003672      0.002041      0.003063
      2.31070     10.32943      5.86449        -0.000140     -0.005181     -0.001785
      2.19692     15.41478      7.19119         0.001029      0.002151      0.001306
      6.14970      1.21012      2.01152         0.001908     -0.000515     -0.002962
      7.44372      2.21991      5.82097        -0.005286     -0.000925      0.004918
      7.24702     23.68696      7.22210        -0.003777      0.002280      0.002406
      5.74484     18.34118      4.27986         0.005579      0.002827      0.001502
      5.95160      6.90669      2.82631        -0.000632      0.003478      0.002530
      2.65315     23.62563      2.15370         0.002974     -0.003195     -0.001999
      7.04105     17.99166      6.40162         0.000552      0.002722     -0.002177
      7.24451      7.25962      0.70301        -0.000403      0.004054      0.000300
      1.54327     17.57410      3.43947         0.001731      0.000231     -0.003062
      1.35171     23.27563      4.27248         0.005971     -0.000543     -0.006827
      1.55418      1.80668      2.86681         0.001396      0.000694      0.000746
      3.04326      7.15878      5.80459        -0.001364      0.001348     -0.001506
      5.95524     24.04390      5.09886         0.001690      0.001695      0.003899
      2.84984      1.45454      4.98884         0.000533     -0.002674     -0.004486
      1.74742      7.50278      3.68159        -0.002196      0.004289      0.002428
      2.84081     18.59592      7.25336        -0.004182      0.003300      0.000100
      6.14178      2.66905      2.21034        -0.001792      0.002765     -0.005867
      7.35532      3.67531      6.03317        -0.003515      0.002768      0.001166
      7.14747     22.23336      7.00946        -0.001551     -0.000430     -0.000415
      5.83673     19.79636      4.49234         0.003900     -0.000798      0.001489
      6.04878      5.45275      2.61503         0.001220     -0.006856      0.001516
      2.65838     22.16745      1.95029         0.002431      0.001843     -0.001482
      7.04995     19.45031      6.60250         0.002644     -0.004687      0.000092
      7.26399      5.79866      0.50638         0.000405     -0.000232      0.004024
      1.52872     19.03422      3.64251        -0.000572     -0.004969     -0.005311
      1.43982     21.82079      4.05709         0.002631      0.000044     -0.001113
      1.64898      3.26050      3.07904         0.003943      0.002839      0.001097
      2.95513      5.70307      5.59360        -0.002914     -0.002234      0.000143
      5.93449     22.58322      4.90027        -0.001126      0.003302      0.000725
      2.86483      2.91521      5.18743         0.001108     -0.000449     -0.001525
      1.73972      6.04387      3.48411        -0.000990      0.000468     -0.000057
      2.74555     20.04924      7.46926        -0.001141      0.000661     -0.000678
      5.53349      3.19892      3.34021        -0.001295      0.001168      0.005591
      7.92707      4.54817      5.11304         0.001805     -0.001038     -0.002049
      7.71310     20.69615      2.00011         0.002173     -0.007027      0.001788
      5.26802     20.67079      3.57192        -0.002059      0.004753     -0.001784
      5.48209      4.58135      3.53884         0.001730     -0.002421     -0.004727
      3.26506     22.30447      6.75169         0.002710      0.000654     -0.003983
      7.65889     19.31390      1.80094         0.003455      0.002276      0.003034
      7.87475      5.93126      5.31125        -0.001603      0.001950     -0.001056
      0.91660     19.56318      4.77154        -0.000477      0.001970      0.006309
      0.86636     20.94572      4.97404        -0.001955     -0.000447      0.003236
      1.08196      4.13157      2.15540        -0.002140     -0.001193     -0.004165
      3.52823      4.16635      0.58136        -0.001131     -0.000515      0.000308
[...]
      8.05459      1.71793      4.87670         0.001664      0.001143      0.000760
      7.86463     23.51704      2.23425         0.000482     -0.001304     -0.000525
      5.12978     17.84085      3.33746        -0.001213     -0.001701     -0.000810
      5.33682      7.40273      3.77135         0.001067     -0.001691     -0.004120
      3.17162     25.07436      7.29252         0.001553      0.001489     -0.001148
      7.55732     17.20733      7.19805         0.002350     -0.000042     -0.001860
      7.75187      8.71029      5.83718         0.001150      0.001204      0.001135
      1.02893     16.78610      4.23301        -0.002953     -0.001448      0.001621
      0.73665     23.77638      5.21471        -0.001512      0.000575      0.001081
      0.94151      1.31070      1.92038        -0.002298     -0.001375      0.002881
      3.65728      6.99782      0.81434         0.000998     -0.002509     -0.000218
      5.44855     24.83187      4.30054        -0.000522      0.001831      0.002214
      3.36489      0.66866      5.78402        -0.000229      0.000385     -0.002133
      1.23101      8.28505      2.88321        -0.003160      0.001424     -0.002698
      3.45706     18.10216      6.30810         0.000079     -0.000514      0.002333
    total drift:                                0.013272      0.012906     -0.009228

  FREE ENERGIE OF THE ION-ELECTRON SYSTEM (eV)
  free  energy   TOTEN  =     -1186.78960087 eV

  energy  without entropy=    -1186.75208693  energy(sigma->0) =    -1186.77084390

 reached required accuracy - stopping structural energy minimisation
 writing wavefunctions