 vasp.5.4.4.18Apr17-6-g9f103f2a35 (build May 22 2020 17:00:04) complex

 executed on           IFC15_impi date 2020.09.26  00:22:54

 INCAR:
 POTCAR:    PAW_PBE C 08Apr2002
 POTCAR:    PAW_PBE Fe 06Sep2000
 POTCAR:    PAW_PBE H 15Jun2001
 POTCAR:    PAW_PBE N 08Apr2002
 POTCAR:    PAW_PBE O 08Apr2002

 POTCAR:    PAW_PBE C 08Apr2002
   VRHFIN =C: s2p2

   TITEL  = PAW_PBE C 08Apr2002
   POMASS =   12.011; ZVAL   =    4.000    mass and valenz
   ENMAX  =  400.000; ENMIN  =  300.000 eV

 POTCAR:    PAW_PBE Fe 06Sep2000
   VRHFIN =Fe:  d7 s1

   TITEL  = PAW_PBE Fe 06Sep2000
   POMASS =   55.847; ZVAL   =    8.000    mass and valenz
   ENMAX  =  267.882; ENMIN  =  200.911 eV

 POTCAR:    PAW_PBE H 15Jun2001
   VRHFIN =H: ultrasoft test

   TITEL  = PAW_PBE H 15Jun2001
   POMASS =    1.000; ZVAL   =    1.000    mass and valenz
   ENMAX  =  250.000; ENMIN  =  200.000 eV

 POTCAR:    PAW_PBE N 08Apr2002
   VRHFIN =N: s2p3

[...]

 POTCAR:    PAW_PBE O 08Apr2002
   VRHFIN =O: s2p4

   TITEL  = PAW_PBE O 08Apr2002
   POMASS =   16.000; ZVAL   =    6.000    mass and valenz
   ENMAX  =  400.000; ENMIN  =  300.000 eV

 Optimization of the real space projectors (new method)

 maximal supplied QI-value         = 25.13
 optimisation between [QCUT,QGAM] = [ 12.32, 24.88] = [ 42.47,173.37] Ry
 Optimized for a Real-space Cutoff    1.06 Angstroem

   l    n(q)    QCUT    max X(q) W(low)/X(q) W(high)/X(q)  e(spline)
   0      8    12.315   115.676    0.34E-03    0.18E-03    0.23E-06
   0      8    12.315    87.132    0.34E-03    0.18E-03    0.22E-06
   1      7    12.315     4.429    0.45E-03    0.12E-03    0.18E-06
   1      7    12.315     2.733    0.35E-03    0.97E-04    0.15E-06
 Optimization of the real space projectors (new method)

[...]

   l    n(q)    QCUT    max X(q) W(low)/X(q) W(high)/X(q)  e(spline)
   0      9    12.315    79.467    0.14E-03    0.22E-04    0.37E-06
   0      9    12.315    66.151    0.14E-03    0.23E-04    0.36E-06
   1      8    12.315    22.077    0.30E-03    0.54E-03    0.45E-06
   1      8    12.315    15.894    0.30E-03    0.55E-03    0.45E-06
 Optimization of the real space projectors (new method)

 maximal supplied QI-value         = 24.76
 optimisation between [QCUT,QGAM] = [ 12.38, 25.00] = [ 42.90,175.06] Ry
 Optimized for a Real-space Cutoff    1.13 Angstroem

   l    n(q)    QCUT    max X(q) W(low)/X(q) W(high)/X(q)  e(spline)
   0      8    12.378    20.381    0.16E-03    0.54E-05    0.27E-06
   0      8    12.378    15.268    0.17E-03    0.61E-05    0.29E-06
   1      8    12.378     5.964    0.38E-03    0.23E-03    0.28E-06
   1      8    12.378     5.382    0.33E-03    0.20E-03    0.25E-06
  PAW_PBE C 08Apr2002                   :
  PAW_PBE Fe 06Sep2000                  :
  PAW_PBE H 15Jun2001                   :
  PAW_PBE N 08Apr2002                   :
  PAW_PBE O 08Apr2002                   :

 POSCAR: FeH_7
  positions in direct lattice
  velocities in cartesian coordinates
 exchange correlation table for  LEXCH =        8
   RHO(1)=    0.500       N(1)  =     2000
   RHO(2)=  100.500       N(2)  =     4000

 ion  position               nearest neighbor table
   1  0.778  0.952  0.068- 107 1.09 117 1.35  65 1.40
   2  0.891  0.958  0.402- 112 1.08 118 1.34  65 1.40
   3  0.775  0.803  0.912- 116 1.09 119 1.35  66 1.40
   4  0.721  0.453  0.565- 110 1.09 120 1.35  67 1.40
   5  0.612  0.297  0.074- 111 1.08 121 1.34  68 1.40
   6  0.108  0.796  0.079- 115 1.08 122 1.34  69 1.40
   7  0.609  0.458  0.899- 101 1.08 123 1.34  67 1.40
   8  0.725  0.303  0.408- 113 1.09 124 1.35  68 1.40
   9  0.388  0.458  0.400- 114 1.08 125 1.34  70 1.40
  10  0.220  0.802  0.413- 104 1.09 126 1.35  69 1.40
  11  0.112  0.958  0.903- 105 1.08 127 1.34  71 1.40
  12  0.392  0.296  0.575- 102 1.08 128 1.34  72 1.40
  13  0.887  0.796  0.578- 108 1.08 129 1.34  66 1.40
  14  0.224  0.952  0.569- 109 1.09 130 1.35  71 1.40
  15  0.279  0.302  0.910- 106 1.09 131 1.35  72 1.40
  16  0.276  0.452  0.066- 103 1.09 132 1.35  70 1.40
  17  0.700  0.033  0.399- 141 1.23 133 1.41  33 1.48
  18  0.842  0.050  0.027- 142 1.23 133 1.42  34 1.48
  19  0.836  0.706  0.952- 143 1.23 134 1.42  35 1.48
  20  0.658  0.550  0.526- 144 1.23 135 1.42  36 1.48
  21  0.664  0.206  0.449- 145 1.23 136 1.42  37 1.48
  22  0.299  0.721  0.081- 146 1.23 137 1.41  38 1.48
  23  0.800  0.533  0.898- 147 1.23 135 1.41  39 1.48
  24  0.806  0.222  0.077- 148 1.23 136 1.41  40 1.48
  25  0.195  0.532  0.399- 149 1.23 138 1.41  41 1.48
  26  0.158  0.705  0.453- 150 1.23 137 1.42  42 1.48
  27  0.164  0.049  0.527- 151 1.23 139 1.42  43 1.48
  28  0.342  0.205  0.950- 152 1.23 140 1.42  44 1.48
  29  0.694  0.722  0.580- 153 1.23 134 1.41  45 1.48
  30  0.305  0.032  0.900- 154 1.23 139 1.41  46 1.48
  31  0.200  0.221  0.578- 155 1.23 140 1.41  47 1.48
  32  0.336  0.549  0.027- 156 1.23 138 1.42  48 1.48
  33  0.691  0.078  0.407-  49 1.39  73 1.41  17 1.48
  34  0.829  0.094  0.042-  50 1.39  73 1.42  18 1.48
  35  0.823  0.662  0.937-  51 1.39  74 1.42  19 1.48
  36  0.670  0.594  0.542-  52 1.39  75 1.42  20 1.48
  37  0.676  0.162  0.435-  53 1.39  76 1.42  21 1.48
  38  0.308  0.677  0.072-  54 1.39  77 1.41  22 1.48
  39  0.809  0.577  0.907-  55 1.39  75 1.41  23 1.48
  40  0.815  0.178  0.069-  56 1.39  76 1.41  24 1.48
  41  0.185  0.576  0.408-  57 1.39  78 1.41  25 1.48
  42  0.170  0.661  0.437-  58 1.39  77 1.42  26 1.48
  43  0.176  0.093  0.542-  59 1.39  79 1.42  27 1.48
  44  0.330  0.161  0.935-  60 1.39  80 1.42  28 1.48
  45  0.685  0.678  0.571-  61 1.39  74 1.41  29 1.48
  46  0.314  0.077  0.908-  62 1.39  79 1.41  30 1.48
  47  0.191  0.177  0.570-  63 1.39  80 1.41  31 1.48
  48  0.324  0.593  0.042-  64 1.39  78 1.42  32 1.48
  49  0.620  0.091  0.591-  88 1.09  33 1.39  53 1.40
  50  0.894  0.123  0.872-  99 1.09  34 1.39  56 1.40
  51  0.887  0.632  0.106-  93 1.09  35 1.39  55 1.40
  52  0.606  0.623  0.373-  90 1.09  36 1.39  61 1.40
  53  0.612  0.133  0.604-  98 1.09  37 1.39  49 1.40
  54  0.380  0.664  0.887-  96 1.09  38 1.39  64 1.40
  55  0.880  0.591  0.091-  86 1.09  39 1.39  51 1.40
  56  0.886  0.164  0.885-  87 1.09  40 1.39  50 1.40
  57  0.114  0.590  0.592-  95 1.09  41 1.39  58 1.40
  58  0.106  0.631  0.606-  91 1.09  42 1.39  57 1.40
  59  0.112  0.122  0.372-  92 1.09  43 1.39  63 1.40
  60  0.394  0.132  0.104-  85 1.09  44 1.39  62 1.40
[...]
 142  0.906  0.037  0.869-  18 1.23
 143  0.900  0.718  0.111-  19 1.23
 144  0.593  0.537  0.367-  20 1.23
 145  0.600  0.218  0.608-  21 1.23
 146  0.353  0.748  0.931-  22 1.23
 147  0.854  0.507  0.048-  23 1.23
 148  0.859  0.248  0.926-  24 1.23
 149  0.141  0.506  0.549-  25 1.23
 150  0.093  0.717  0.612-  26 1.23
 151  0.099  0.036  0.369-  27 1.23
 152  0.407  0.217  0.108-  28 1.23
 153  0.641  0.749  0.430-  29 1.23
 154  0.358  0.006  0.051-  30 1.23
 155  0.146  0.248  0.428-  31 1.23
 156  0.401  0.537  0.868-  32 1.23

IMPORTANT INFORMATION: All symmetrisations will be switched off!
NOSYMM: (Re-)initialisation of all symmetry stuff for point group C_1.

Automatic generation of k-mesh.
 generate k-points for:    3    1    4
Space group operators:
 irot       det(A)        alpha          n_x          n_y          n_z        tau_x        tau_y        tau_z
    1     1.000000     0.000001     1.000000     0.000000     0.000000     0.000000     0.000000     0.000000

 Subroutine IBZKPT returns following result:

 Found      7 irreducible k-points:

 Following reciprocal coordinates:
            Coordinates               Weight
  0.000000  0.000000  0.000000      1.000000
  0.333333  0.000000 -0.000000      2.000000
 -0.000000 -0.000000  0.250000      2.000000
  0.333333 -0.000000  0.250000      2.000000
 -0.333333 -0.000000  0.250000      2.000000
 -0.000000 -0.000000  0.500000      1.000000
  0.333333 -0.000000  0.500000      2.000000

 Following cartesian coordinates:
            Coordinates               Weight
  0.000000  0.000000  0.000000      1.000000
  0.033953  0.000005 -0.000008      2.000000
 -0.000003 -0.003345  0.044446      2.000000
  0.033949 -0.003340  0.044438      2.000000
 -0.033956 -0.003350  0.044455      2.000000
 -0.000006 -0.006690  0.088892      1.000000
  0.033946 -0.006685  0.088884      2.000000

 SYSTEM =  flex_MOF
 POSCAR =  FeH_7

 Startparameter for this run:
   NWRITE =      2    write-flag & timer
   PREC   = normal    normal or accurate (medium, high low for compatibility)
   ISTART =      0    job   : 0-new  1-cont  2-samecut
   ICHARG =      2    charge: 1-file 2-atom 10-const
   ISPIN  =      2    spin polarized calculation?
   LNONCOLLINEAR =      F non collinear calculations
   LSORBIT =      F    spin-orbit coupling
   INIWAV =      1    electr: 0-lowe 1-rand  2-diag
   LASPH  =      F    aspherical Exc in radial PAW
   METAGGA=      F    non-selfconsistent MetaGGA calc.

 Electronic Relaxation 1
   ENCUT  =  600.0 eV  44.10 Ry    6.64 a.u.  19.61 66.00 11.36*2*pi/ulx,y,z
   ENINI  =  600.0     initial cutoff
   ENAUG  =  644.9 eV  augmentation charge cutoff
   NELM   =    120;   NELMIN=  3; NELMDL= -8     # of ELM steps
   EDIFF  = 0.1E-05   stopping-criterion for ELM
   LREAL  =      T    real-space projection
   NLSPLINE    = F    spline interpolate recip. space projectors
   LCOMPAT=      F    compatible to vasp.4.4
   GGA_COMPAT  = T    GGA compatible to vasp.4.4-vasp.4.6
   LMAXPAW     = -100 max onsite density
   LMAXMIX     =    2 max onsite mixed and CHGCAR
   VOSKOWN=      0    Vosko Wilk Nusair interpolation
   ROPT   =   -0.00050  -0.00050  -0.00050  -0.00050
   ROPT   =   -0.00050
 Ionic relaxation
   EDIFFG = -.1E-01   stopping-criterion for IOM
   NSW    =    500    number of steps for IOM
   NBLOCK =      1;   KBLOCK =    500    inner block; outer block
   IBRION =      2    ionic relax: 0-MD 1-quasi-New 2-CG
   NFREE  =      1    steps in history (QN), initial steepest desc. (CG)
   ISIF   =      3    stress and relaxation
   IWAVPR =     11    prediction:  0-non 1-charg 2-wave 3-comb
   ISYM   =      0    0-nonsym 1-usesym 2-fastsym
   LCORR  =      T    Harris-Foulkes like correction to forces

   POTIM  = 0.5000    time-step for ionic-motion
   TEIN   =    0.0    initial temperature
   TEBEG  =    0.0;   TEEND  =   0.0 temperature during run
   SMASS  =  -3.00    Nose mass-parameter (am)
   estimated Nose-frequenzy (Omega)   =  0.10E-29 period in steps =****** mass=  -0.220E-26a.u.
   SCALEE = 1.0000    scale energy and forces
   NPACO  =    256;   APACO  = 16.0  distance and # of slots for P.C.
   PSTRESS=    0.0 pullay stress

  Mass of Ions in am
   POMASS =  12.01 55.85  1.00 14.00 16.00
  Ionic Valenz
   ZVAL   =   4.00  8.00  1.00  5.00  6.00
  Atomic Wigner-Seitz radii
  virtual crystal weights
   VCA    =   1.00  1.00  1.00  1.00  1.00
   NELECT =     600.0000    total number of electrons
   NUPDOWN=      -1.0000    fix difference up-down

 DOS related values:
   EMIN   =  10.00;   EMAX   =-10.00  energy-range for DOS
   EFERMI =   0.00
   ISMEAR =     0;   SIGMA  =   0.05  broadening in eV -4-tet -1-fermi 0-gaus

 Electronic relaxation 2 (details)
   IALGO  =     38    algorithm
[...]
  110        set_charge                            0.876146                            1   3
  111          soft_charge                           0.831092                          1   4
  112            fftwav_mpi                            0.740729                      140   5
  113              fft3d_mpi                             0.670357                    140   6
  114                fftbas_plan_mpi                       0.669822                  140   7
  115                  dfftw_execute                         0.328937                420   8
  116                  map_forward                           0.264902                280   8
  117                    map_gather                            0.068890              140   9
  118                    m_alltoallv_z                         0.064787              140   9
  119                    map_scatter                           0.078005              140   9
  120            pw_charge                             0.072287                      140   5
  121            fft3d_mpi                             0.008057                        2   5
  122              fftbas_plan_mpi                       0.007255                      2   6
  123                dfftw_execute                         0.002921                    6   7
  124                map_backward                          0.003298                    4   7
  125                  map_gather                            0.001138                  4   8
  126                  m_alltoallv_z                         0.002049                  4   8
  127                  map_scatter                           0.000064                  4   8
  128          depsum                                0.003408                          1   4
  129          fft3d_mpi                             0.006967                          2   4
  130            fftbas_plan_mpi                       0.006801                        2   5
  131              dfftw_execute                         0.001048                      6   6
  132              map_backward                          0.004150                      4   6
  133                map_gather                            0.000278                    2   7
  134                m_alltoallv_z                         0.003588                    2   7
  135                map_scatter                           0.000250                    2   7
  136        forloc                                0.085633                            1   3
  137        fornlr                                3.879663                            1   3
  138          rspher_all                            0.091792                          3   4
  139          phaser                                0.297768                         21   4
  140          rpro_isp                              3.477788                         21   4
  141            fftwav_mpi                            2.608304                      504   5
  142              fft3d_mpi                             2.353560                    504   6
  143                fftbas_plan_mpi                       2.351941                  504   7
  144                  dfftw_execute                         1.181971               1512   8
  145                  map_forward                           0.910952               1008   8
  146                    map_gather                            0.234597              504   9
  147                    m_alltoallv_z                         0.214960              504   9
  148                    map_scatter                           0.277842              504   9
  149            rpromu                                0.862227                      126   5
  150              crrexp_mul_wave                       0.432534                  78624   6
  151              rpromu_gemm                           0.280924                  19656   6
  152        fordep                                0.178352                            1   3
  153          setdij_                               0.177775                          6   4
  154        setdij_                               0.591339                           20   3
  155        set_dd_paw                            0.030322                            1   3
  156        strkin                                0.018477                            1   3
  157        strelo                                0.003897                            1   3
  158        strnlr                               11.593843                            1   3
  159          rspher_all                            0.282507                          9   4
  160          phaser                                0.897705                         63   4
  161          rpro_isp                             10.381830                         63   4
  162            fftwav_mpi                            7.783353                     1512   5
  163              fft3d_mpi                             7.040738                   1512   6
  164                fftbas_plan_mpi                       7.035576                 1512   7
  165                  dfftw_execute                         3.504745               4536   8
  166                  map_forward                           2.722173               3024   8
  167                    map_gather                            0.702277             1512   9
  168                    m_alltoallv_z                         0.637583             1512   9
  169                    map_scatter                           0.831346             1512   9
  170            rpromu                                2.586190                      378   5
  171              crrexp_mul_wave                       1.302363                 235872   6
  172              rpromu_gemm                           0.848787                  58968   6
  173        fft3d_mpi                             0.066371                           22   3
  174          fftbas_plan_mpi                       0.064407                         22   4
  175            dfftw_execute                         0.012579                       66   5
  176            map_forward                           0.016995                       20   5
  177              map_gather                            0.000884                     10   6
  178              m_alltoallv_z                         0.014371                     10   6
  179              map_scatter                           0.001582                     10   6
  180            map_backward                          0.018528                       24   5
  181              map_gather                            0.001367                     12   6
  182              m_alltoallv_z                         0.015430                     12   6
  183              map_scatter                           0.001535                     12   6
  184        forhar                                0.154816                            2   3
  185        strehar                               0.003739                            1   3
  186        chggra                                0.012213                            1   3
  187          fft3d_mpi                             0.009511                          3   4
  188            fftbas_plan_mpi                       0.009257                        3   5
  189              dfftw_execute                         0.001624                      9   6
  190              map_forward                           0.003745                      4   6
  191                map_gather                            0.000226                    2   7
  192                m_alltoallv_z                         0.003173                    2   7
  193                map_scatter                           0.000314                    2   7
  194              map_backward                          0.001623                      2   6
  195                map_gather                            0.000109                    1   7
  196                m_alltoallv_z                         0.001325                    1   7
  197                map_scatter                           0.000175                    1   7
  198        brmix                                 0.018457                            1   3
  199          brpre                                 0.000069                          2   4
  200          setg0                                 0.001107                          1   4
  201          broyd                                 0.014331                          1   4
  202            brget                                 0.001698                      273   5
  203            brsav                                 0.000261                       49   5

 Flat profile

 eddav                                1259.038712          82
 dfftw_execute                         359.641299      466341
 redis_pw                              259.341200      142781
 total_time                            256.898588           1
 orth1                                 185.634256      154401
 redis_proj                             97.531309      180430
 map_scatter                            94.055496      155749
 m_alltoallv_z                          89.659902      155749
 fftbas_plan_mpi                        87.440840      155449
 map_gather                             83.359672      155749
 crrexp_mul_work_add                    72.040321     8020116
 racc0                                  69.484160       51411
 fftwav_mpi                             64.816796      101730
 rpro1                                  47.512142       37635
 map_forward                            45.135239      205622
 vhamil                                 42.664344       51411
 crrexp_mul_wave                        34.666512     6211764
 lincom                                 26.777444        1162
 phaser                                 17.567532        1239
 w1_copy                                11.858930      154233
 fftext_mpi                              9.225163       51411
 eccp                                    8.331391       13776
 force_and_stress                        8.190965           1
 pw_charge                               5.535759       10500
 kinhamil                                5.252285       51411
 apply_precond                           3.212195       37635
 setdij_                                 3.072744         103
 overl                                   2.844046       89060
 set_charge                              2.606591          75
 set_dd_paw                              2.337351          77
 overl1                                  1.973030       51411
 setup_precond                           1.860393       13776
 rpromu_gemm                             1.229234       85176
 map_backward                            1.043743      105272
 soft_charge                             0.903504          75
 fft3d_mpi                               0.879501      155447
 hamiltmu                                0.707654       51411
 rpromu                                  0.635153         546
 broyd                                   0.626990          75
 rspher_all                              0.427878          14
 raccmu_                                 0.303690       51411
 choleski                                0.269751          14
 depsum                                  0.262077          75
 w1_projall                              0.244189       37635
 orthch                                  0.201417           1
 brmix                                   0.168665          75
 forhar                                  0.154816           2
 brget                                   0.089553       14571
 setg0                                   0.086992          77
 forloc                                  0.085633           1
 truncate_high_frequency_w1              0.046803       65187
 strnlr                                  0.031801           1
 brsav                                   0.023573        3341
 rpro_isp                                0.021693          91
 strkin                                  0.018477           1
 fornlr                                  0.012314           1
 brpre                                   0.007484         150
 brgrid                                  0.006278           1
 strelo                                  0.003897           1
 strehar                                 0.003739           1
 chggra                                  0.002702           1
 fordep                                  0.000577           1
 redis_pw_over_bands                     0.000001           1
  summed up times    3268.06639099121

 Accumulative profile

 total_time                           3268.066391           1
 eddav                                2904.491363          82
 fft3d_mpi                             761.169063      155447
 fftbas_plan_mpi                       760.336193      155449
 fftwav_mpi                            586.673676      101730
 hamiltmu                              433.194286       51411
 dfftw_execute                         359.641299      466341
 redis_pw                              259.341200      142781
 kinhamil                              246.021086       51411
 fftext_mpi                            240.768801       51411
 map_forward                           225.691508      205622
 orth1                                 185.634256      154401
 raccmu_                               143.801202       51411
 racc0                                 141.524482       51411
 redis_proj                             97.531309      180430
 map_scatter                            94.055496      155749
 m_alltoallv_z                          89.659902      155749
 map_backward                           87.562545      105272
 map_gather                             83.359672      155749
 w1_projall                             80.544835       37635
 rpro1                                  80.300646       37635
 crrexp_mul_work_add                    72.040321     8020116
 set_charge                             66.753139          75
 soft_charge                            63.283002          75
 vhamil                                 42.664344       51411
 crrexp_mul_wave                        34.666512     6211764
 lincom                                 26.777444        1162
 force_and_stress                       25.704233           1
 phaser                                 17.567532        1239
 rpro_isp                               15.068198          91
 w1_copy                                11.858930      154233
 strnlr                                 11.593843           1
 eccp                                    8.331391       13776
 pw_charge                               5.535759       10500
 fornlr                                  3.879663           1
 rpromu                                  3.742395         546
 apply_precond                           3.212195       37635
 setdij_                                 3.072744         103
 overl                                   2.844046       89060
 set_dd_paw                              2.337351          77
 overl1                                  1.973030       51411
 setup_precond                           1.860393       13776
 orthch                                  1.651422           1
 rpromu_gemm                             1.229234       85176
 brmix                                   1.003258          75
 broyd                                   0.740116          75
 rspher_all                              0.427878          14
 choleski                                0.269751          14
 depsum                                  0.262077          75
 fordep                                  0.178352           1
 forhar                                  0.154816           2
 brget                                   0.089553       14571
 setg0                                   0.086992          77
 forloc                                  0.085633           1
 truncate_high_frequency_w1              0.046803       65187
 brsav                                   0.023573        3341
 strkin                                  0.018477           1
 chggra                                  0.012213           1
 brpre                                   0.007484         150
 brgrid                                  0.006278           1
 strelo                                  0.003897           1
 strehar                                 0.003739           1
 redis_pw_over_bands                     0.000001           1

Profiling took   9.764504  5.592807  0.012798  0.012431 seconds
Profiling took  11.336871 seconds